 vasp.6.3.0 20Jan22 (build Feb 01 2022 16:52:37) complex

 executed on           TETRA_NSC1 date 2022.02.23  16:06:58

 INCAR:
   ICHARG = 11
   SYSTEM = clean (100) nickel surface
   ENMAX = 270
   ISMEAR = 2
   SIGMA = 0.2
   ALGO = Normal
   ISPIN = 2
   MAGMOM = 5*1
   LORBIT = 11

 POTCAR:    PAW_PBE Ni 02Aug2007
 POTCAR:    PAW_PBE Ni 02Aug2007
   VRHFIN =Ni:

   TITEL  = PAW_PBE Ni 02Aug2007
   POMASS =   58.690; ZVAL   =   10.000    mass and valenz
   ENMAX  =  269.532; ENMIN  =  202.149 eV

  PAW_PBE Ni 02Aug2007                  :

 POSCAR: fcc (100) surface
  positions in direct lattice
  velocities in cartesian coordinates
 exchange correlation table for  LEXCH =        8
   RHO(1)=    0.500       N(1)  =     2000
   RHO(2)=  100.500       N(2)  =     4000

 ion  position               nearest neighbor table
   1  0.000  0.000  0.000-   2 2.50   2 2.50   2 2.50   2 2.50
   2  0.500  0.500  0.100-   1 2.50   3 2.50   1 2.50   3 2.50   1 2.50   3 2.50   1 2.50   3 2.50

   3  0.000  0.000  0.200-   2 2.50   2 2.50   2 2.50   2 2.50   4 2.50   4 2.50   4 2.50   4 2.50

[...]

   5  0.000  0.000  0.396-   4 2.44   4 2.44   4 2.44   4 2.44

  LATTYP: Found a simple tetragonal cell.
 ALAT       =     2.4960869376
 C/A-ratio  =     7.0710678119

  Lattice vectors:

 A1 = (   1.7650000000,   1.7650000000,   0.0000000000)
 A2 = (  -1.7650000000,   1.7650000000,   0.0000000000)
 A3 = (   0.0000000000,   0.0000000000,  17.6500000000)

Analysis of symmetry for initial positions (statically):
 Subroutine PRICEL returns:
 Original cell was already a primitive cell.

 Routine SETGRP: Setting up the symmetry group for a
 simple tetragonal supercell.

 Subroutine GETGRP returns: Found  8 space group operations
 (whereof  8 operations were pure point group operations)
 out of a pool of 16 trial point group operations.

The static configuration has the point symmetry C_4v.

Analysis of symmetry for dynamics (positions and initial velocities):
 Subroutine PRICEL returns:
 Original cell was already a primitive cell.

[...]

The dynamic configuration has the point symmetry C_4v.

Analysis of constrained symmetry for selective dynamics:
 Subroutine PRICEL returns:
 Original cell was already a primitive cell.

[...]

The constrained configuration has the point symmetry C_4v.

Analysis of structural, dynamic, and magnetic symmetry:
 Subroutine PRICEL returns:
 Original cell was already a primitive cell.

 Routine SETGRP: Setting up the symmetry group for a
 simple tetragonal supercell.

 Subroutine GETGRP returns: Found  8 space group operations
 (whereof  8 operations were pure point group operations)
 out of a pool of 16 trial point group operations.

The overall configuration has the point symmetry C_4v.

 Subroutine INISYM returns: Found  8 space group operations
 (whereof  8 operations are pure point group operations),
 and found     1 'primitive' translations

                                     Primitive cell

  volume of cell :     109.9674

  direct lattice vectors                    reciprocal lattice vectors
     1.765000000  1.765000000  0.000000000     0.283286119  0.283286119  0.000000000
    -1.765000000  1.765000000  0.000000000    -0.283286119  0.283286119  0.000000000
     0.000000000  0.000000000 17.650000000     0.000000000  0.000000000  0.056657224

  length of vectors
     2.496086938  2.496086938 17.650000000     0.400627071  0.400627071  0.056657224

  position of ions in fractional coordinates (direct lattice)
     0.000000000  0.000000000  0.000000000
     0.500000000  0.500000000  0.100000000
     0.000000000  0.000000000  0.200000000
     0.500000000  0.500000000  0.300209984
     0.000000000  0.000000000  0.395507253

  ion indices of the primitive-cell ions
   primitive index   ion index
                 1           1
                 2           2
                 3           3
                 4           4
                 5           5

 KPOINTS: kpoints for band-structure G-X-M-G

Read explicit list of k-points.

 Found     13 k-points:

 Following reciprocal coordinates:
            Coordinates               Weight
  0.000000  0.000000  0.000000      0.076923
  0.125000  0.000000  0.000000      0.076923
  0.250000  0.000000  0.000000      0.076923
  0.375000  0.000000  0.000000      0.076923
  0.500000  0.000000  0.000000      0.076923
  0.500000  0.125000  0.000000      0.076923
  0.500000  0.250000  0.000000      0.076923
  0.500000  0.375000  0.000000      0.076923
  0.500000  0.500000  0.000000      0.076923
  0.375000  0.375000  0.000000      0.076923
  0.250000  0.250000  0.000000      0.076923
  0.125000  0.125000  0.000000      0.076923
  0.000000  0.000000  0.000000      0.076923

 Following cartesian coordinates:
            Coordinates               Weight
  0.000000  0.000000  0.000000      0.076923
  0.125000  0.125000  0.000000      0.076923
  0.250000  0.250000  0.000000      0.076923
  0.375000  0.375000  0.000000      0.076923
  0.500000  0.500000  0.000000      0.076923
  0.375000  0.625000  0.000000      0.076923
  0.250000  0.750000  0.000000      0.076923
  0.125000  0.875000  0.000000      0.076923
  0.000000  1.000000  0.000000      0.076923
  0.000000  0.750000  0.000000      0.076923
  0.000000  0.500000  0.000000      0.076923
  0.000000  0.250000  0.000000      0.076923
  0.000000  0.000000  0.000000      0.076923

 SYSTEM =  clean (100) nickel surface
 POSCAR =  fcc (100) surface

 Startparameter for this run:
   NWRITE =      2    write-flag & timer
   PREC   = normal    normal or accurate (medium, high low for compatibility)
   ISTART =      0    job   : 0-new  1-cont  2-samecut
   ICHARG =     11    charge: 1-file 2-atom 10-const
   ISPIN  =      2    spin polarized calculation?
   LNONCOLLINEAR =      F non collinear calculations
   LSORBIT =      F    spin-orbit coupling
   INIWAV =      1    electr: 0-lowe 1-rand  2-diag
   LASPH  =      F    aspherical Exc in radial PAW
 Electronic Relaxation 1
   ENCUT  =  270.0 eV  19.84 Ry    4.45 a.u.   3.34  3.34 23.65*2*pi/ulx,y,z
   ENINI  =  270.0     initial cutoff
   ENAUG  =  544.6 eV  augmentation charge cutoff
   NELM   =     60;   NELMIN=  2; NELMDL= -5     # of ELM steps
   EDIFF  = 0.1E-03   stopping-criterion for ELM
   LREAL  =      F    real-space projection
   NLSPLINE    = F    spline interpolate recip. space projectors
   LCOMPAT=      F    compatible to vasp.4.4
   GGA_COMPAT  = T    GGA compatible to vasp.4.4-vasp.4.6
   LMAXPAW     = -100 max onsite density
   LMAXMIX     =    2 max onsite mixed and CHGCAR
   VOSKOWN=      0    Vosko Wilk Nusair interpolation
   ROPT   =    0.00000
 Ionic relaxation
   EDIFFG = 0.1E-02   stopping-criterion for IOM
   NSW    =      0    number of steps for IOM
   NBLOCK =      1;   KBLOCK =      1    inner block; outer block
   IBRION =     -1    ionic relax: 0-MD 1-quasi-New 2-CG
   NFREE  =      0    steps in history (QN), initial steepest desc. (CG)
   ISIF   =      2    stress and relaxation
   IWAVPR =     10    prediction:  0-non 1-charg 2-wave 3-comb
   ISYM   =      2    0-nonsym 1-usesym 2-fastsym
   LCORR  =      T    Harris-Foulkes like correction to forces

   POTIM  = 0.5000    time-step for ionic-motion
   TEIN   =    0.0    initial temperature
   TEBEG  =    0.0;   TEEND  =   0.0 temperature during run
   SMASS  =  -3.00    Nose mass-parameter (am)
   estimated Nose-frequenzy (Omega)   =  0.10E-29 period in steps = 0.13E+47 mass=  -0.142E-27a.u.
   SCALEE = 1.0000    scale energy and forces
   NPACO  =    256;   APACO  = 10.0  distance and # of slots for P.C.
   PSTRESS=    0.0 pullay stress

  Mass of Ions in am
   POMASS =  58.69
  Ionic Valenz
   ZVAL   =  10.00
  Atomic Wigner-Seitz radii
  virtual crystal weights
   VCA    =   1.00
   NELECT =      50.0000    total number of electrons
   NUPDOWN=      -1.0000    fix difference up-down

 DOS related values:
   EMIN   =  10.00;   EMAX   =-10.00  energy-range for DOS
   EFERMI =   0.00
   ISMEAR =     2;   SIGMA  =   0.20  broadening in eV -4-tet -1-fermi 0-gaus

 Electronic relaxation 2 (details)
   IALGO  =     38    algorithm
   LDIAG  =      T    sub-space diagonalisation (order eigenvalues)
   LSUBROT=      F    optimize rotation matrix (better conditioning)
   TURBO    =      0    0=normal 1=particle mesh
   IRESTART =      0    0=no restart 2=restart with 2 vectors
   NREBOOT  =      0    no. of reboots
   NMIN     =      0    reboot dimension
   EREF     =   0.00    reference energy to select bands
   IMIX   =      4    mixing-type and parameters
     AMIX     =   0.40;   BMIX     =  1.00
     AMIX_MAG =   1.60;   BMIX_MAG =  1.00
     AMIN     =   0.10
     WC   =   100.;   INIMIX=   1;  MIXPRE=   1;  MAXMIX= -45

 Intra band minimization:
   WEIMIN = 0.0000     energy-eigenvalue tresh-hold
   EBREAK =  0.69E-06  absolut break condition
   DEPER  =   0.30     relativ break condition

   TIME   =   0.40     timestep for ELM

  volume/ion in A,a.u.               =      21.99       148.42
  Fermi-wavevector in a.u.,A,eV,Ry     =   1.258858  2.378897 21.561476  1.584724
  Thomas-Fermi vector in A             =   2.392447

 Write flags
   LWAVE        =      T    write WAVECAR
   LDOWNSAMPLE  =      F    k-point downsampling of WAVECAR
   LCHARG       =      T    write CHGCAR
   LVTOT        =      F    write LOCPOT, total local potential
   LVHAR        =      F    write LOCPOT, Hartree potential only
   LELF         =      F    write electronic localiz. function (ELF)
   LORBIT       =     11    0 simple, 1 ext, 2 COOP (PROOUT), +10 PAW based schemes

 Dipole corrections
   LMONO  =      F    monopole corrections only (constant potential shift)
   LDIPOL =      F    correct potential (dipole corrections)
   IDIPOL =      0    1-x, 2-y, 3-z, 4-all directions
   EPSILON=  1.0000000 bulk dielectric constant

 Exchange correlation treatment:
   GGA     =    --    GGA type
   VOSKOWN =     0    Vosko Wilk Nusair interpolation
   LHFCALC =     F    Hartree Fock is set to
   LHFONE  =     F    Hartree Fock one center treatment
   AEXX    =    0.0000 exact exchange contribution

 Linear response parameters
   LEPSILON=     F    determine dielectric tensor
   LRPA    =     F    only Hartree local field effects (RPA)
   LNABLA  =     F    use nabla operator in PAW spheres
   LVEL    =     F    velocity operator in full k-point grid
   CSHIFT  =0.1000    complex shift for real part using Kramers Kronig
   OMEGAMAX=  -1.0    maximum frequency
   DEG_THRESHOLD= 0.2000000E-02 threshold for treating states as degnerate
   RTIME   =   -0.100 relaxation time in fs
  (WPLASMAI=    0.000 imaginary part of plasma frequency in eV, 0.658/RTIME)
   DFIELD  = 0.0000000 0.0000000 0.0000000 field for delta impulse in time

  Optional k-point grid parameters
   LKPOINTS_OPT  =     F    use optional k-point grid
   KPOINTS_OPT_MODE=     1    mode for optional k-point grid

 Orbital magnetization related:
   ORBITALMAG=     F  switch on orbital magnetization
   LCHIMAG   =     F  perturbation theory with respect to B field
   DQ        =  0.001000  dq finite difference perturbation B field
   LLRAUG    =     F  two centre corrections for induced B field

 Static calculation
 charge density and potential remain constant during run
 spin polarized calculation
 Variant of blocked Davidson
 Davidson routine will perform the subspace rotation
 perform sub-space diagonalisation
    after iterative eigenvector-optimisation
 no mixing
 using additional bands           11
 reciprocal scheme for non local part
 use partial core corrections
 calculate Harris-corrections to forces
   (improved forces if not selfconsistent)
 use gradient corrections
 WARNING: stress and forces are not correct
  (second derivative of E(xc) not defined)
 use of overlap-Matrix (Vanderbilt PP)
 Methfessel and Paxton  Order N= 2 SIGMA  =   0.20

  energy-cutoff  :      270.00
  volume of cell :      109.97
      direct lattice vectors                 reciprocal lattice vectors
     1.765000000  1.765000000  0.000000000     0.283286119  0.283286119  0.000000000
    -1.765000000  1.765000000  0.000000000    -0.283286119  0.283286119  0.000000000
     0.000000000  0.000000000 17.650000000     0.000000000  0.000000000  0.056657224

[...]

 k-points in units of 2pi/SCALE and weight: kpoints for band-structure G-X-M-G
   0.00000000  0.00000000  0.00000000       0.077
   0.12500000  0.12500000  0.00000000       0.077
   0.25000000  0.25000000  0.00000000       0.077
   0.37500000  0.37500000  0.00000000       0.077
   0.50000000  0.50000000  0.00000000       0.077
   0.37500000  0.62500000  0.00000000       0.077
   0.25000000  0.75000000  0.00000000       0.077
   0.12500000  0.87500000  0.00000000       0.077
   0.00000000  1.00000000  0.00000000       0.077
   0.00000000  0.75000000  0.00000000       0.077
   0.00000000  0.50000000  0.00000000       0.077
   0.00000000  0.25000000  0.00000000       0.077
   0.00000000  0.00000000  0.00000000       0.077

 k-points in reciprocal lattice and weights: kpoints for band-structure G-X-M-G
   0.00000000  0.00000000  0.00000000       0.077
   0.12500000  0.00000000  0.00000000       0.077
   0.25000000  0.00000000  0.00000000       0.077
   0.37500000  0.00000000  0.00000000       0.077
   0.50000000  0.00000000  0.00000000       0.077
   0.50000000  0.12500000  0.00000000       0.077
   0.50000000  0.25000000  0.00000000       0.077
   0.50000000  0.37500000  0.00000000       0.077
   0.50000000  0.50000000  0.00000000       0.077
   0.37500000  0.37500000  0.00000000       0.077
   0.25000000  0.25000000  0.00000000       0.077
   0.12500000  0.12500000  0.00000000       0.077
   0.00000000  0.00000000  0.00000000       0.077

 position of ions in fractional coordinates (direct lattice)
   0.00000000  0.00000000  0.00000000
   0.50000000  0.50000000  0.10000000
   0.00000000  0.00000000  0.20000000
   0.50000000  0.50000000  0.30020998
   0.00000000  0.00000000  0.39550725

 position of ions in cartesian coordinates  (Angst):
   0.00000000  0.00000000  0.00000000
   0.00000000  1.76500000  1.76500000
   0.00000000  0.00000000  3.53000000
   0.00000000  1.76500000  5.29870622
   0.00000000  0.00000000  6.98070302

 k-point   1 :   0.0000 0.0000 0.0000  plane waves:    1131
 k-point   2 :   0.1250 0.0000 0.0000  plane waves:    1129
 k-point   3 :   0.2500 0.0000 0.0000  plane waves:    1111
 k-point   4 :   0.3750 0.0000 0.0000  plane waves:    1110
 k-point   5 :   0.5000 0.0000 0.0000  plane waves:    1094
 k-point   6 :   0.5000 0.1250 0.0000  plane waves:    1112
 k-point   7 :   0.5000 0.2500 0.0000  plane waves:    1098
 k-point   8 :   0.5000 0.3750 0.0000  plane waves:    1092
 k-point   9 :   0.5000 0.5000 0.0000  plane waves:    1096
 k-point  10 :   0.3750 0.3750 0.0000  plane waves:    1098
 k-point  11 :   0.2500 0.2500 0.0000  plane waves:    1119
 k-point  12 :   0.1250 0.1250 0.0000  plane waves:    1125
 k-point  13 :   0.0000 0.0000 0.0000  plane waves:    1131

 maximum and minimum number of plane-waves per node :      1131     1092

 maximum number of plane-waves:      1131
 maximum index in each direction:
   IXMAX=    3   IYMAX=    3   IZMAX=   23
   IXMIN=   -3   IYMIN=   -3   IZMIN=  -23

 serial   3D FFT for wavefunctions
 parallel 3D FFT for charge:
    minimum data exchange during FFTs selected (reduces bandwidth)

 initial charge density was supplied:
 number of electron      49.9998830 magnetization       3.1321365
 keeping initial charge density in first step

 Maximum index for augmentation-charges          540 (set IRDMAX)

 First call to EWALD:  gamma=   0.370
 Maximum number of real-space cells 5x 5x 1
 Maximum number of reciprocal cells 2x 2x 9

--------------------------------------- Iteration      1(   1)  ---------------------------------------

 eigenvalue-minimisations  :  1872
 total energy-change (2. order) : 0.2471151E+03  (-0.1569909E+04)
 number of electron      49.9998830 magnetization       3.1321365
 augmentation part       49.9998830 magnetization       3.1321365

 Free energy of the ion-electron system (eV)
  alpha Z        PSCENC =       115.94204576
  Ewald energy   TEWEN  =      9453.09366082
  -Hartree energ DENC   =    -14802.13141136
  -exchange      EXHF   =         0.00000000
  -V(xc)+E(xc)   XCENC  =       152.65703717
  PAW double counting   =      5573.37830148    -5914.67299622
  entropy T*S    EENTRO =        -0.00287111
  eigenvalues    EBANDS =       280.67100380
  atomic energy  EATOM  =      5388.18037335
  Solvation  Ediel_sol  =         0.00000000
  free energy    TOTEN  =       247.11514368 eV

  energy without entropy =      247.11801479  energy(sigma->0) =      247.11586145

[...]

 eigenvalue-minimisations  :  1912
 total energy-change (2. order) :-0.2588230E+03  (-0.2433258E+03)
 number of electron      49.9998830 magnetization       3.1321365
 augmentation part       49.9998830 magnetization       3.1321365

[...]

--------------------------------------- Iteration      1(   7)  ---------------------------------------

 eigenvalue-minimisations  :  1224
 total energy-change (2. order) :-0.1448701E-05  (-0.1448759E-05)
 number of electron      49.9998830 magnetization       3.1321365
 augmentation part       49.9998830 magnetization       3.1321365

 Free energy of the ion-electron system (eV)
  alpha Z        PSCENC =       115.94204576
  Ewald energy   TEWEN  =      9453.09366082
  -Hartree energ DENC   =    -14802.13141136
  -exchange      EXHF   =         0.00000000
  -V(xc)+E(xc)   XCENC  =       152.65703717
  PAW double counting   =      5573.37830148    -5914.67299622
  entropy T*S    EENTRO =        -0.00541958
  eigenvalues    EBANDS =         6.87709645
  atomic energy  EATOM  =      5388.18037335
  Solvation  Ediel_sol  =         0.00000000
  free energy    TOTEN  =       -26.68131214 eV

  energy without entropy =      -26.67589256  energy(sigma->0) =      -26.67995725

 average (electrostatic) potential at core
  the test charge radii are     0.9791
  (the norm of the test charge is              1.0000)
       1 -88.7826       2 -89.0973       3 -89.0850       4 -89.1493       5 -88.8169

 E-fermi :   2.3104     XC(G=0):  -7.6525     alpha+bet : -8.1440

 Fermi energy:         2.3103711785

 spin component 1

 k-point     1 :       0.0000    0.0000    0.0000
  band No.  band energies     occupation
      1      -6.2635      1.00000
      2      -5.0798      1.00000
      3      -3.4014      1.00000
      4      -2.2805      1.00000
      5      -2.2010      1.00000
      6      -1.7119      1.00000
      7      -1.3605      1.00000
      8      -0.8368      1.00000
      9      -0.3703      1.00000
     10      -0.1224      1.00000
     11       0.0292      1.00000
     12       0.0292      1.00000
     13       0.4011      1.00000
     14       0.4011      1.00000
     15       0.5018      1.00000
     16       0.7590      1.00000
     17       0.9475      1.00000
     18       0.9853      1.00000
     19       0.9853      1.00000
     20       1.0058      1.00000
     21       1.0944      1.00000
     22       1.1688      1.00000
     23       1.4315      1.00000
     24       1.5141      1.00000
     25       1.5141      1.00000
     26       1.6159      0.99998
     27       1.6800      0.99986
     28       1.7945      0.99839
     29       1.7945      0.99839
     30       2.8509      0.00104
     31       4.2138      0.00000
     32       6.6488      0.00000
     33       8.0922      0.00000
     34       9.8924      0.00000
     35      13.0630      0.00000
     36      13.7506      0.00000

[...]

 k-point    13 :       0.0000    0.0000    0.0000
  band No.  band energies     occupation
      1      -6.2635      1.00000
      2      -5.0798      1.00000
      3      -3.4014      1.00000
      4      -2.2805      1.00000
      5      -2.2010      1.00000
      6      -1.7119      1.00000
      7      -1.3605      1.00000
      8      -0.8368      1.00000
      9      -0.3703      1.00000
     10      -0.1224      1.00000
     11       0.0292      1.00000
     12       0.0292      1.00000
     13       0.4011      1.00000
     14       0.4011      1.00000
     15       0.5018      1.00000
     16       0.7590      1.00000
     17       0.9475      1.00000
     18       0.9853      1.00000
     19       0.9853      1.00000
     20       1.0058      1.00000
     21       1.0944      1.00000
     22       1.1688      1.00000
     23       1.4315      1.00000
     24       1.5141      1.00000
     25       1.5141      1.00000
     26       1.6159      0.99998
     27       1.6800      0.99986
     28       1.7945      0.99839
     29       1.7945      0.99839
     30       2.8509      0.00104
     31       4.2138      0.00000
     32       6.6488      0.00000
     33       8.0922      0.00000
     34       9.8924      0.00000
     35      13.0630      0.00000
     36      13.7506      0.00000
 Fermi energy:         2.3103711785

 spin component 2

[...]

 k-point    13 :       0.0000    0.0000    0.0000
  band No.  band energies     occupation
      1      -6.3061      1.00000
      2      -5.1138      1.00000
      3      -3.3955      1.00000
      4      -2.0728      1.00000
      5      -1.8857      1.00000
      6      -1.1758      1.00000
      7      -0.7955      1.00000
      8      -0.2043      1.00000
      9       0.2870      1.00000
     10       0.5344      1.00000
     11       0.7165      1.00000
     12       0.7165      1.00000
     13       1.0500      1.00000
     14       1.1205      1.00000
     15       1.1205      1.00000
     16       1.3556      1.00000
     17       1.3770      1.00000
     18       1.5688      0.99999
     19       1.6736      0.99988
     20       1.7351      0.99948
     21       1.7351      0.99948
     22       1.8682      0.99585
     23       2.1372      1.04832
     24       2.3130      0.48622
     25       2.3130      0.48622
     26       2.4074      0.06983
     27       2.4422     -0.00890
     28       2.5866     -0.02068
     29       2.5866     -0.02068
     30       2.9080      0.00032
     31       4.1998      0.00000
     32       7.0082      0.00000
     33       8.2312      0.00000
     34      10.1731      0.00000
     35      13.3060      0.00000
     36      13.9522      0.00000

 soft charge-density along one line, spin component           1
         0         1         2         3         4         5         6         7         8         9
 total charge-density along one line

 soft charge-density along one line, spin component           2
         0         1         2         3         4         5         6         7         8         9
 total charge-density along one line

------------------------ aborting loop because EDIFF is reached ----------------------------------------

 total charge

# of ion       s       p       d       tot
    1        0.503   0.258   8.300   9.062
    2        0.511   0.420   8.410   9.341
    3        0.510   0.430   8.411   9.351
    4        0.519   0.443   8.406   9.367
    5        0.513   0.280   8.314   9.107
tot          2.555   1.831  41.842  46.227

 magnetization (x)

[...]

  FORCE on cell =-STRESS in cart. coord.  units (eV):
  Direction    XX          YY          ZZ          XY          YZ          ZX
  Alpha Z   115.94205   115.94205   115.94205
  Ewald   12520.52130 12520.52130-15587.95298     0.00000    -0.00000     0.00000
  Hartree 14044.63502 14044.63502-13244.89251    -0.00000    -0.00000     0.00000
  E(xc)    -274.06867  -274.06867  -274.94726    -0.00000     0.00000     0.00000
  Local  -27621.25650-27621.25650 27757.58208     0.00000     0.00000    -0.00000
  n-local   -37.34602   -38.30111   -33.94553   -12.42863     0.00001     0.00005
  augment   884.85395   884.85395   893.62471     0.00000    -0.00000    -0.00000
  Kinetic   382.31004   385.84614   394.21472     4.13208    -0.00001    -0.00004
  Fock        0.00000     0.00000     0.00000     0.00000     0.00000     0.00000
  Total      16.88168    16.88168    19.62528     0.00000     0.00000    -0.00000
  in kB     245.95871   245.95871   285.93173     0.00000     0.00000    -0.00000

 VOLUME and BASIS-vectors are now :
  energy-cutoff  :      270.00
  volume of cell :      109.97
      direct lattice vectors                 reciprocal lattice vectors
     1.765000000  1.765000000  0.000000000     0.283286119  0.283286119  0.000000000
    -1.765000000  1.765000000  0.000000000    -0.283286119  0.283286119  0.000000000
     0.000000000  0.000000000 17.650000000     0.000000000  0.000000000  0.056657224

  length of vectors
     2.496086938  2.496086938 17.650000000     0.400627071  0.400627071  0.056657224

 FORCES acting on ions
    electron-ion (+dipol)            ewald-force                    non-local-force                 convergence-correction
   -.216E-12 0.232E-12 0.287E+04   0.910E-14 0.238E-14 -.286E+04   -.112E-21 0.112E-21 -.215E+01   -.675E-13 0.117E-12 -.302E+01
   0.777E-13 -.254E-12 0.148E+04   -.119E-13 -.189E-13 -.147E+04   0.198E-20 0.140E-20 -.744E+00   -.633E-13 0.264E-12 -.122E+02
   -.477E-14 0.521E-13 0.122E+02   0.420E-14 0.935E-14 -.131E+02   -.122E-20 -.902E-21 0.191E-01   -.117E-12 0.509E-13 0.840E+00
   -.590E-13 -.208E-12 -.146E+04   -.107E-13 -.133E-13 0.145E+04   0.125E-22 0.934E-22 0.763E+00   0.137E-11 -.185E-12 0.125E+02
   -.708E-13 0.157E-12 -.289E+04   0.918E-14 -.713E-14 0.289E+04   -.109E-20 -.181E-21 0.190E+01   -.450E-13 -.405E-13 0.205E+01
   -.273E-12 -.218E-13 0.190E-01   -.934E-16 -.275E-13 0.455E-12   -.421E-21 0.527E-21 -.214E+00   0.108E-11 0.207E-12 0.167E+00

 POSITION                                       TOTAL-FORCE (eV/Angst)
      0.00000      0.00000      0.00000         0.000000     -0.000000     -0.052513
      0.00000      1.76500      1.76500        -0.000000     -0.000000     -0.323434
      0.00000      0.00000      3.53000        -0.000000     -0.000000     -0.021668
      0.00000      1.76500      5.29871         0.000000      0.000000     -0.036166
      0.00000      0.00000      6.98070        -0.000000     -0.000000      0.433781
    total drift:                                0.000000      0.000000     -0.027630

  FREE ENERGIE OF THE ION-ELECTRON SYSTEM (eV)
  free  energy   TOTEN  =       -26.68131214 eV

  energy  without entropy=      -26.67589256  energy(sigma->0) =      -26.67995725

 writing wavefunctions

 total charge

[...]

 magnetization (x)

# of ion       s       p       d       tot
    1       -0.003  -0.015   0.865   0.848
    2       -0.008  -0.024   0.673   0.641
    3       -0.008  -0.024   0.674   0.641
    4       -0.008  -0.025   0.684   0.651
    5       -0.003  -0.016   0.848   0.829
tot         -0.030  -0.105   3.745   3.610