 vasp.6.3.0 20Jan22 (build Feb 01 2022 16:52:37) complex

 executed on           TETRA_NSC1 date 2022.02.23  15:32:48

 INCAR:
   SYSTEM = fcc Ni
   ISTART = 0
   ICHARG = 11
   ENCUT = 270
   ISMEAR = 1
   SIGMA = 0.2
   LORBIT = 11
   ISPIN = 2
   MAGMOM = 1

 POTCAR:    PAW_PBE Ni 02Aug2007
 POTCAR:    PAW_PBE Ni 02Aug2007
   VRHFIN =Ni:

   TITEL  = PAW_PBE Ni 02Aug2007
   POMASS =   58.690; ZVAL   =   10.000    mass and valenz
   ENMAX  =  269.532; ENMIN  =  202.149 eV

  PAW_PBE Ni 02Aug2007                  :

 POSCAR: fcc Ni
  positions in cartesian coordinates
  velocities in cartesian coordinates
 exchange correlation table for  LEXCH =        8
   RHO(1)=    0.500       N(1)  =     2000
   RHO(2)=  100.500       N(2)  =     4000

 ion  position               nearest neighbor table
   1  0.000  0.000  0.000-

  LATTYP: Found a face centered cubic cell.
 ALAT       =     3.5300000000

  Lattice vectors:

 A1 = (   1.7650000000,   1.7650000000,   0.0000000000)
 A2 = (   0.0000000000,   1.7650000000,   1.7650000000)
 A3 = (   1.7650000000,   0.0000000000,   1.7650000000)

Analysis of symmetry for initial positions (statically):
 Subroutine PRICEL returns:
 Original cell was already a primitive cell.

 Routine SETGRP: Setting up the symmetry group for a
 face centered cubic supercell.

 Subroutine GETGRP returns: Found 48 space group operations
 (whereof 48 operations were pure point group operations)
 out of a pool of 48 trial point group operations.

The static configuration has the point symmetry O_h .

Analysis of symmetry for dynamics (positions and initial velocities):
 Subroutine PRICEL returns:
 Original cell was already a primitive cell.

[...]

The dynamic configuration has the point symmetry O_h .

Analysis of structural, dynamic, and magnetic symmetry:
 Subroutine PRICEL returns:
 Original cell was already a primitive cell.

 Routine SETGRP: Setting up the symmetry group for a
 face centered cubic supercell.

 Subroutine GETGRP returns: Found 48 space group operations
 (whereof 48 operations were pure point group operations)
 out of a pool of 48 trial point group operations.

The overall configuration has the point symmetry O_h .

 Subroutine INISYM returns: Found 48 space group operations
 (whereof 48 operations are pure point group operations),
 and found     1 'primitive' translations

                                     Primitive cell

  volume of cell :      10.9967

  direct lattice vectors                    reciprocal lattice vectors
     1.765000000  1.765000000  0.000000000     0.283286119  0.283286119 -0.283286119
     0.000000000  1.765000000  1.765000000    -0.283286119  0.283286119  0.283286119
     1.765000000  0.000000000  1.765000000     0.283286119 -0.283286119  0.283286119

  length of vectors
     2.496086938  2.496086938  2.496086938     0.490665951  0.490665951  0.490665951

  position of ions in fractional coordinates (direct lattice)
     0.000000000  0.000000000  0.000000000

  ion indices of the primitive-cell ions
   primitive index   ion index
                 1           1

 KPOINTS: kpoints for bandstructure L-G-X-U K-G

Interpolating k-points between supplied coordinates.

 Line segments in fractional coordinates (reciprocal lattice):
    0.500000  0.500000  0.500000  ...  0.000000  0.000000  0.000000
    0.000000  0.000000  0.000000  ...  0.000000  0.500000  0.500000
    0.000000  0.500000  0.500000  ...  0.250000  0.625000  0.625000
    0.375000  0.750000  0.375000  ...  0.000000  0.000000  0.000000

 Generated    10 points on each line segment, for a total of     40 k-points:

 Following reciprocal coordinates:
            Coordinates               Weight
  0.500000  0.500000  0.500000      0.025000
  0.444444  0.444444  0.444444      0.025000
  0.388889  0.388889  0.388889      0.025000
  0.333333  0.333333  0.333333      0.025000
  0.277778  0.277778  0.277778      0.025000
  0.222222  0.222222  0.222222      0.025000
  0.166667  0.166667  0.166667      0.025000
  0.111111  0.111111  0.111111      0.025000
  0.055556  0.055556  0.055556      0.025000
  0.000000  0.000000  0.000000      0.025000
  0.000000  0.000000  0.000000      0.025000
  0.000000  0.055556  0.055556      0.025000
  0.000000  0.111111  0.111111      0.025000
  0.000000  0.166667  0.166667      0.025000
  0.000000  0.222222  0.222222      0.025000
  0.000000  0.277778  0.277778      0.025000
  0.000000  0.333333  0.333333      0.025000
  0.000000  0.388889  0.388889      0.025000
  0.000000  0.444444  0.444444      0.025000
  0.000000  0.500000  0.500000      0.025000
  0.000000  0.500000  0.500000      0.025000
  0.027778  0.513889  0.513889      0.025000
  0.055556  0.527778  0.527778      0.025000
  0.083333  0.541667  0.541667      0.025000
  0.111111  0.555556  0.555556      0.025000
  0.138889  0.569444  0.569444      0.025000
  0.166667  0.583333  0.583333      0.025000
  0.194444  0.597222  0.597222      0.025000
  0.222222  0.611111  0.611111      0.025000
  0.250000  0.625000  0.625000      0.025000
  0.375000  0.750000  0.375000      0.025000
  0.333333  0.666667  0.333333      0.025000
  0.291667  0.583333  0.291667      0.025000
  0.250000  0.500000  0.250000      0.025000
  0.208333  0.416667  0.208333      0.025000
  0.166667  0.333333  0.166667      0.025000
  0.125000  0.250000  0.125000      0.025000
  0.083333  0.166667  0.083333      0.025000
  0.041667  0.083333  0.041667      0.025000
  0.000000  0.000000  0.000000      0.025000

 Following cartesian coordinates:
            Coordinates               Weight
  0.500000  0.500000  0.500000      0.025000
  0.444444  0.444444  0.444444      0.025000
  0.388889  0.388889  0.388889      0.025000
  0.333333  0.333333  0.333333      0.025000
  0.277778  0.277778  0.277778      0.025000
  0.222222  0.222222  0.222222      0.025000
  0.166667  0.166667  0.166667      0.025000
  0.111111  0.111111  0.111111      0.025000
  0.055556  0.055556  0.055556      0.025000
  0.000000  0.000000  0.000000      0.025000
  0.000000  0.000000  0.000000      0.025000
 -0.000000  0.000000  0.111111      0.025000
 -0.000000  0.000000  0.222222      0.025000
  0.000000 -0.000000  0.333333      0.025000
 -0.000000  0.000000  0.444444      0.025000
  0.000000 -0.000000  0.555556      0.025000
  0.000000 -0.000000  0.666667      0.025000
  0.000000 -0.000000  0.777778      0.025000
 -0.000000  0.000000  0.888889      0.025000
  0.000000  0.000000  1.000000      0.025000
  0.000000  0.000000  1.000000      0.025000
  0.027778  0.027778  1.000000      0.025000
  0.055556  0.055556  1.000000      0.025000
  0.083333  0.083333  1.000000      0.025000
  0.111111  0.111111  1.000000      0.025000
  0.138889  0.138889  1.000000      0.025000
  0.166667  0.166667  1.000000      0.025000
  0.194444  0.194444  1.000000      0.025000
  0.222222  0.222222  1.000000      0.025000
  0.250000  0.250000  1.000000      0.025000
  0.000000  0.750000  0.750000      0.025000
 -0.000000  0.666667  0.666667      0.025000
  0.000000  0.583333  0.583333      0.025000
  0.000000  0.500000  0.500000      0.025000
  0.000000  0.416667  0.416667      0.025000
 -0.000000  0.333333  0.333333      0.025000
  0.000000  0.250000  0.250000      0.025000
 -0.000000  0.166667  0.166667      0.025000
  0.000000  0.083333  0.083333      0.025000
  0.000000  0.000000  0.000000      0.025000

 SYSTEM =  fcc Ni
 POSCAR =  fcc Ni

 Startparameter for this run:
   NWRITE =      2    write-flag & timer
   PREC   = normal    normal or accurate (medium, high low for compatibility)
   ISTART =      0    job   : 0-new  1-cont  2-samecut
   ICHARG =     11    charge: 1-file 2-atom 10-const
   ISPIN  =      2    spin polarized calculation?
   LNONCOLLINEAR =      F non collinear calculations
   LSORBIT =      F    spin-orbit coupling
   INIWAV =      1    electr: 0-lowe 1-rand  2-diag
   LASPH  =      F    aspherical Exc in radial PAW
 Electronic Relaxation 1
   ENCUT  =  270.0 eV  19.84 Ry    4.45 a.u.   3.34  3.34  3.34*2*pi/ulx,y,z
   ENINI  =  270.0     initial cutoff
   ENAUG  =  544.6 eV  augmentation charge cutoff
   NELM   =     60;   NELMIN=  2; NELMDL= -5     # of ELM steps
   EDIFF  = 0.1E-03   stopping-criterion for ELM
   LREAL  =      F    real-space projection
   NLSPLINE    = F    spline interpolate recip. space projectors
   LCOMPAT=      F    compatible to vasp.4.4
   GGA_COMPAT  = T    GGA compatible to vasp.4.4-vasp.4.6
   LMAXPAW     = -100 max onsite density
   LMAXMIX     =    2 max onsite mixed and CHGCAR
   VOSKOWN=      0    Vosko Wilk Nusair interpolation
   ROPT   =    0.00000
 Ionic relaxation
   EDIFFG = 0.1E-02   stopping-criterion for IOM
   NSW    =      0    number of steps for IOM
   NBLOCK =      1;   KBLOCK =      1    inner block; outer block
   IBRION =     -1    ionic relax: 0-MD 1-quasi-New 2-CG
   NFREE  =      0    steps in history (QN), initial steepest desc. (CG)
   ISIF   =      2    stress and relaxation
   IWAVPR =     10    prediction:  0-non 1-charg 2-wave 3-comb
   ISYM   =      2    0-nonsym 1-usesym 2-fastsym
   LCORR  =      T    Harris-Foulkes like correction to forces

   POTIM  = 0.5000    time-step for ionic-motion
   TEIN   =    0.0    initial temperature
   TEBEG  =    0.0;   TEEND  =   0.0 temperature during run
   SMASS  =  -3.00    Nose mass-parameter (am)
   estimated Nose-frequenzy (Omega)   =  0.10E-29 period in steps = 0.13E+47 mass=  -0.142E-27a.u.
   SCALEE = 1.0000    scale energy and forces
   NPACO  =    256;   APACO  = 10.0  distance and # of slots for P.C.
   PSTRESS=    0.0 pullay stress

  Mass of Ions in am
   POMASS =  58.69
  Ionic Valenz
   ZVAL   =  10.00
  Atomic Wigner-Seitz radii
  virtual crystal weights
   VCA    =   1.00
   NELECT =      10.0000    total number of electrons
   NUPDOWN=      -1.0000    fix difference up-down

 DOS related values:
   EMIN   =  10.00;   EMAX   =-10.00  energy-range for DOS
   EFERMI =   0.00
   ISMEAR =     1;   SIGMA  =   0.20  broadening in eV -4-tet -1-fermi 0-gaus

 Electronic relaxation 2 (details)
   IALGO  =     38    algorithm
   LDIAG  =      T    sub-space diagonalisation (order eigenvalues)
   LSUBROT=      F    optimize rotation matrix (better conditioning)
   TURBO    =      0    0=normal 1=particle mesh
   IRESTART =      0    0=no restart 2=restart with 2 vectors
   NREBOOT  =      0    no. of reboots
   NMIN     =      0    reboot dimension
   EREF     =   0.00    reference energy to select bands
   IMIX   =      4    mixing-type and parameters
     AMIX     =   0.40;   BMIX     =  1.00
     AMIX_MAG =   1.60;   BMIX_MAG =  1.00
     AMIN     =   0.10
     WC   =   100.;   INIMIX=   1;  MIXPRE=   1;  MAXMIX= -45

 Intra band minimization:
   WEIMIN = 0.0000     energy-eigenvalue tresh-hold
   EBREAK =  0.21E-05  absolut break condition
   DEPER  =   0.30     relativ break condition

   TIME   =   0.40     timestep for ELM

  volume/ion in A,a.u.               =      11.00        74.21
  Fermi-wavevector in a.u.,A,eV,Ry     =   1.586062  2.997222 34.226710  2.515592
  Thomas-Fermi vector in A             =   2.685431

 Write flags
   LWAVE        =      T    write WAVECAR
   LDOWNSAMPLE  =      F    k-point downsampling of WAVECAR
[...]
   LRPA    =     F    only Hartree local field effects (RPA)
   LNABLA  =     F    use nabla operator in PAW spheres
   LVEL    =     F    velocity operator in full k-point grid
   CSHIFT  =0.1000    complex shift for real part using Kramers Kronig
   OMEGAMAX=  -1.0    maximum frequency
   DEG_THRESHOLD= 0.2000000E-02 threshold for treating states as degnerate
   RTIME   =   -0.100 relaxation time in fs
  (WPLASMAI=    0.000 imaginary part of plasma frequency in eV, 0.658/RTIME)
   DFIELD  = 0.0000000 0.0000000 0.0000000 field for delta impulse in time

  Optional k-point grid parameters
   LKPOINTS_OPT  =     F    use optional k-point grid
   KPOINTS_OPT_MODE=     1    mode for optional k-point grid

 Orbital magnetization related:
   ORBITALMAG=     F  switch on orbital magnetization
   LCHIMAG   =     F  perturbation theory with respect to B field
   DQ        =  0.001000  dq finite difference perturbation B field
   LLRAUG    =     F  two centre corrections for induced B field

 Static calculation
 charge density and potential remain constant during run
 spin polarized calculation
 Variant of blocked Davidson
 Davidson routine will perform the subspace rotation
 perform sub-space diagonalisation
    after iterative eigenvector-optimisation
 no mixing
 using additional bands            7
 reciprocal scheme for non local part
 use partial core corrections
 calculate Harris-corrections to forces
   (improved forces if not selfconsistent)
 use gradient corrections
 WARNING: stress and forces are not correct
  (second derivative of E(xc) not defined)
 use of overlap-Matrix (Vanderbilt PP)
 Methfessel and Paxton  Order N= 1 SIGMA  =   0.20

  energy-cutoff  :      270.00
  volume of cell :       11.00
      direct lattice vectors                 reciprocal lattice vectors
     1.765000000  1.765000000  0.000000000     0.283286119  0.283286119 -0.283286119
     0.000000000  1.765000000  1.765000000    -0.283286119  0.283286119  0.283286119
     1.765000000  0.000000000  1.765000000     0.283286119 -0.283286119  0.283286119

[...]

 k-points in units of 2pi/SCALE and weight: kpoints for bandstructure L-G-X-U K-G
   0.50000000  0.50000000  0.50000000       0.025
   0.44444444  0.44444444  0.44444444       0.025
   0.38888889  0.38888889  0.38888889       0.025
   0.33333333  0.33333333  0.33333333       0.025
   0.27777778  0.27777778  0.27777778       0.025
   0.22222222  0.22222222  0.22222222       0.025
   0.16666667  0.16666667  0.16666667       0.025
   0.11111111  0.11111111  0.11111111       0.025
   0.05555556  0.05555556  0.05555556       0.025
   0.00000000  0.00000000  0.00000000       0.025
   0.00000000  0.00000000  0.00000000       0.025
  -0.00000000  0.00000000  0.11111111       0.025
  -0.00000000  0.00000000  0.22222222       0.025
   0.00000000 -0.00000000  0.33333333       0.025
  -0.00000000  0.00000000  0.44444444       0.025
   0.00000000 -0.00000000  0.55555556       0.025
   0.00000000 -0.00000000  0.66666667       0.025
   0.00000000 -0.00000000  0.77777778       0.025
  -0.00000000  0.00000000  0.88888889       0.025
   0.00000000  0.00000000  1.00000000       0.025
   0.00000000  0.00000000  1.00000000       0.025
   0.02777778  0.02777778  1.00000000       0.025
   0.05555556  0.05555556  1.00000000       0.025
   0.08333333  0.08333333  1.00000000       0.025
   0.11111111  0.11111111  1.00000000       0.025
   0.13888889  0.13888889  1.00000000       0.025
   0.16666667  0.16666667  1.00000000       0.025
   0.19444444  0.19444444  1.00000000       0.025
   0.22222222  0.22222222  1.00000000       0.025
   0.25000000  0.25000000  1.00000000       0.025
   0.00000000  0.75000000  0.75000000       0.025
   0.00000000  0.66666667  0.66666667       0.025
  -0.00000000  0.58333333  0.58333333       0.025
   0.00000000  0.50000000  0.50000000       0.025
  -0.00000000  0.41666667  0.41666667       0.025
   0.00000000  0.33333333  0.33333333       0.025
   0.00000000  0.25000000  0.25000000       0.025
   0.00000000  0.16666667  0.16666667       0.025
  -0.00000000  0.08333333  0.08333333       0.025
   0.00000000  0.00000000  0.00000000       0.025

 k-points in reciprocal lattice and weights: kpoints for bandstructure L-G-X-U K-G
   0.50000000  0.50000000  0.50000000       0.025
   0.44444444  0.44444444  0.44444444       0.025
   0.38888889  0.38888889  0.38888889       0.025
   0.33333333  0.33333333  0.33333333       0.025
   0.27777778  0.27777778  0.27777778       0.025
   0.22222222  0.22222222  0.22222222       0.025
   0.16666667  0.16666667  0.16666667       0.025
   0.11111111  0.11111111  0.11111111       0.025
   0.05555556  0.05555556  0.05555556       0.025
   0.00000000  0.00000000  0.00000000       0.025
   0.00000000  0.00000000  0.00000000       0.025
   0.00000000  0.05555556  0.05555556       0.025
   0.00000000  0.11111111  0.11111111       0.025
   0.00000000  0.16666667  0.16666667       0.025
   0.00000000  0.22222222  0.22222222       0.025
   0.00000000  0.27777778  0.27777778       0.025
   0.00000000  0.33333333  0.33333333       0.025
   0.00000000  0.38888889  0.38888889       0.025
   0.00000000  0.44444444  0.44444444       0.025
   0.00000000  0.50000000  0.50000000       0.025
   0.00000000  0.50000000  0.50000000       0.025
   0.02777778  0.51388889  0.51388889       0.025
   0.05555556  0.52777778  0.52777778       0.025
   0.08333333  0.54166667  0.54166667       0.025
   0.11111111  0.55555556  0.55555556       0.025
   0.13888889  0.56944444  0.56944444       0.025
   0.16666667  0.58333333  0.58333333       0.025
   0.19444444  0.59722222  0.59722222       0.025
   0.22222222  0.61111111  0.61111111       0.025
   0.25000000  0.62500000  0.62500000       0.025
   0.37500000  0.75000000  0.37500000       0.025
   0.33333333  0.66666667  0.33333333       0.025
   0.29166667  0.58333333  0.29166667       0.025
   0.25000000  0.50000000  0.25000000       0.025
   0.20833333  0.41666667  0.20833333       0.025
   0.16666667  0.33333333  0.16666667       0.025
   0.12500000  0.25000000  0.12500000       0.025
   0.08333333  0.16666667  0.08333333       0.025
   0.04166667  0.08333333  0.04166667       0.025
   0.00000000  0.00000000  0.00000000       0.025

 position of ions in fractional coordinates (direct lattice)
   0.00000000  0.00000000  0.00000000

 position of ions in cartesian coordinates  (Angst):
   0.00000000  0.00000000  0.00000000

 k-point   1 :   0.5000 0.5000 0.5000  plane waves:     108
 k-point   2 :   0.4444 0.4444 0.4444  plane waves:     108
 k-point   3 :   0.3889 0.3889 0.3889  plane waves:     114
 k-point   4 :   0.3333 0.3333 0.3333  plane waves:     111
 k-point   5 :   0.2778 0.2778 0.2778  plane waves:     114
 k-point   6 :   0.2222 0.2222 0.2222  plane waves:     110
 k-point   7 :   0.1667 0.1667 0.1667  plane waves:     116
 k-point   8 :   0.1111 0.1111 0.1111  plane waves:     116
 k-point   9 :   0.0556 0.0556 0.0556  plane waves:     113
 k-point  10 :   0.0000 0.0000 0.0000  plane waves:     113
 k-point  11 :   0.0000 0.0000 0.0000  plane waves:     113
 k-point  12 :   0.0000 0.0556 0.0556  plane waves:     113
 k-point  13 :   0.0000 0.1111 0.1111  plane waves:     117
 k-point  14 :   0.0000 0.1667 0.1667  plane waves:     113
 k-point  15 :   0.0000 0.2222 0.2222  plane waves:     113
 k-point  16 :   0.0000 0.2778 0.2778  plane waves:     113
 k-point  17 :   0.0000 0.3333 0.3333  plane waves:     113
 k-point  18 :   0.0000 0.3889 0.3889  plane waves:     112
 k-point  19 :   0.0000 0.4444 0.4444  plane waves:     112
 k-point  20 :   0.0000 0.5000 0.5000  plane waves:     116
 k-point  21 :   0.0000 0.5000 0.5000  plane waves:     116
 k-point  22 :   0.0278 0.5139 0.5139  plane waves:     116
 k-point  23 :   0.0556 0.5278 0.5278  plane waves:     114
 k-point  24 :   0.0833 0.5417 0.5417  plane waves:     114
 k-point  25 :   0.1111 0.5556 0.5556  plane waves:     114
 k-point  26 :   0.1389 0.5694 0.5694  plane waves:     110
 k-point  27 :   0.1667 0.5833 0.5833  plane waves:     110
 k-point  28 :   0.1944 0.5972 0.5972  plane waves:     110
 k-point  29 :   0.2222 0.6111 0.6111  plane waves:     110
 k-point  30 :   0.2500 0.6250 0.6250  plane waves:     110
 k-point  31 :   0.3750 0.7500 0.3750  plane waves:     110
 k-point  32 :   0.3333 0.6667 0.3333  plane waves:     108
 k-point  33 :   0.2917 0.5833 0.2917  plane waves:     111
 k-point  34 :   0.2500 0.5000 0.2500  plane waves:     107
 k-point  35 :   0.2083 0.4167 0.2083  plane waves:     113
 k-point  36 :   0.1667 0.3333 0.1667  plane waves:     111
 k-point  37 :   0.1250 0.2500 0.1250  plane waves:     117
 k-point  38 :   0.0833 0.1667 0.0833  plane waves:     117
 k-point  39 :   0.0417 0.0833 0.0417  plane waves:     113
 k-point  40 :   0.0000 0.0000 0.0000  plane waves:     113

 maximum and minimum number of plane-waves per node :       117      107

 maximum number of plane-waves:       117
 maximum index in each direction:
   IXMAX=    3   IYMAX=    3   IZMAX=    3
   IXMIN=   -3   IYMIN=   -4   IZMIN=   -3

 serial   3D FFT for wavefunctions
 parallel 3D FFT for charge:
    minimum data exchange during FFTs selected (reduces bandwidth)

 initial charge density was supplied:
 number of electron       9.9999909 magnetization       0.5905199
 keeping initial charge density in first step

 Maximum index for augmentation-charges          733 (set IRDMAX)

 First call to EWALD:  gamma=   0.797
 Maximum number of real-space cells 3x 3x 3
 Maximum number of reciprocal cells 3x 3x 3

--------------------------------------- Iteration      1(   1)  ---------------------------------------

 eigenvalue-minimisations  :  2100
 total energy-change (2. order) : 0.1746508E+02  (-0.3109970E+03)
 number of electron       9.9999909 magnetization       0.5905199
 augmentation part        9.9999909 magnetization       0.5905199

 Free energy of the ion-electron system (eV)
  alpha Z        PSCENC =        46.37681830
  Ewald energy   TEWEN  =      -935.14218197
  -Hartree energ DENC   =      -225.99030613
  -exchange      EXHF   =         0.00000000
  -V(xc)+E(xc)   XCENC  =        30.68046260
  PAW double counting   =      1133.38289479    -1201.82330303
  entropy T*S    EENTRO =         0.00071181
  eigenvalues    EBANDS =        92.34391128
  atomic energy  EATOM  =      1077.63607467
  Solvation  Ediel_sol  =         0.00000000
  free energy    TOTEN  =        17.46508232 eV

  energy without entropy =       17.46437051  energy(sigma->0) =       17.46484505

[...]

 eigenvalue-minimisations  :  2068
 total energy-change (2. order) :-0.2444108E+02  (-0.2292057E+02)
 number of electron       9.9999909 magnetization       0.5905199
 augmentation part        9.9999909 magnetization       0.5905199

[...]

--------------------------------------- Iteration      1(   6)  ---------------------------------------

 eigenvalue-minimisations  :  1716
 total energy-change (2. order) :-0.5701146E-06  (-0.5698393E-06)
 number of electron       9.9999909 magnetization       0.5905199
 augmentation part        9.9999909 magnetization       0.5905199

 Free energy of the ion-electron system (eV)
  alpha Z        PSCENC =        46.37681830
  Ewald energy   TEWEN  =      -935.14218197
  -Hartree energ DENC   =      -225.99030613
  -exchange      EXHF   =         0.00000000
  -V(xc)+E(xc)   XCENC  =        30.68046260
  PAW double counting   =      1133.38289479    -1201.82330303
  entropy T*S    EENTRO =         0.00754940
  eigenvalues    EBANDS =        67.37583909
  atomic energy  EATOM  =      1077.63607467
  Solvation  Ediel_sol  =         0.00000000
  free energy    TOTEN  =        -7.49615229 eV

  energy without entropy =       -7.50370169  energy(sigma->0) =       -7.49866875

 average (electrostatic) potential at core
  the test charge radii are     0.9791
  (the norm of the test charge is              1.0000)
       1 -82.1426

 E-fermi :   8.9513     XC(G=0): -13.1915     alpha+bet :-16.2879

 Fermi energy:         8.9513333529

 spin component 1

 k-point     1 :       0.5000    0.5000    0.5000
  band No.  band energies     occupation
      1       4.4840      1.00000
      2       6.8417      1.00000
      3       6.8417      1.00000
      4       8.6379      1.02458
      5       8.6379      1.02458
      6       8.9600      0.46317
      7      14.8503      0.00000
      8      31.3875      0.00000
      9      33.7291      0.00000
     10      33.7291      0.00000
     11      36.7598      0.00000
     12      36.7598      0.00000

[...]

 k-point    40 :       0.0000    0.0000    0.0000
  band No.  band energies     occupation
      1       0.2950      1.00000
      2       6.8747      1.00000
      3       6.8747      1.00000
      4       6.8747      1.00000
      5       7.9296      1.00000
      6       7.9296      1.00000
      7      32.8973      0.00000
      8      36.6576      0.00000
      9      36.6578      0.00000
     10      36.6578      0.00000
     11      39.7354      0.00000
     12      39.7355      0.00000
 Fermi energy:         8.9513333529

 spin component 2

[...]

 k-point    40 :       0.0000    0.0000    0.0000
  band No.  band energies     occupation
      1       0.2479      1.00000
      2       7.5429      1.00000
      3       7.5429      1.00000
      4       7.5429      1.00000
      5       8.5650      1.00991
      6       8.5650      1.00991
      7      32.7255      0.00000
      8      36.6264      0.00000
      9      36.6267      0.00000
     10      36.6267      0.00000
     11      39.7824      0.00000
     12      39.7825      0.00000

 soft charge-density along one line, spin component           1
         0         1         2         3         4         5         6         7         8         9
 total charge-density along one line

 soft charge-density along one line, spin component           2
         0         1         2         3         4         5         6         7         8         9
 total charge-density along one line

------------------------ aborting loop because EDIFF is reached ----------------------------------------

 total charge

# of ion       s       p       d       tot
    1        0.705   0.304   8.305   9.314

 magnetization (x)

[...]

  FORCE on cell =-STRESS in cart. coord.  units (eV):
  Direction    XX          YY          ZZ          XY          YZ          ZX
  Alpha Z    46.37682    46.37682    46.37682
  Ewald    -311.71407  -311.71407  -311.71407     0.00000    -0.00000     0.00000
  Hartree    76.01107    76.01107    76.01107     0.00000     0.00000     0.00000
  E(xc)     -55.01924   -55.01923   -55.01924    -0.00005    -0.00005    -0.00005
  Local      -1.57052    -1.57049    -1.57052     0.00070     0.00070     0.00070
  n-local    -1.97782    -2.01181    -6.03026    -0.72641    -1.22222    -0.21509
  augment   176.10096   176.10089   176.10096    -0.00040    -0.00040    -0.00038
  Kinetic    74.87933    75.27721    77.82838     1.13153     1.07323     0.80965
  Fock        0.00000     0.00000     0.00000     0.00000     0.00000     0.00000
  Total       2.84003     2.84003     2.84003     0.00000     0.00000    -0.00000
  in kB     413.77995   413.77995   413.77995     0.00000     0.00000    -0.00000

 VOLUME and BASIS-vectors are now :
  energy-cutoff  :      270.00
  volume of cell :       11.00
      direct lattice vectors                 reciprocal lattice vectors
     1.765000000  1.765000000  0.000000000     0.283286119  0.283286119 -0.283286119
     0.000000000  1.765000000  1.765000000    -0.283286119  0.283286119  0.283286119
     1.765000000  0.000000000  1.765000000     0.283286119 -0.283286119  0.283286119

  length of vectors
     2.496086938  2.496086938  2.496086938     0.490665951  0.490665951  0.490665951

 FORCES acting on ions
    electron-ion (+dipol)            ewald-force                    non-local-force                 convergence-correction
   0.279E-13 0.369E-13 0.227E-13   -.749E-15 0.780E-15 0.540E-15   0.772E-21 -.693E-22 0.348E-21   0.167E-14 -.670E-12 -.683E-12
   0.279E-13 0.369E-13 0.227E-13   -.749E-15 0.780E-15 0.540E-15   0.772E-21 -.693E-22 0.348E-21   0.167E-14 -.670E-12 -.683E-12

 POSITION                                       TOTAL-FORCE (eV/Angst)
      0.00000      0.00000      0.00000        -0.000000     -0.000000      0.000000
    total drift:                                0.000000     -0.000000     -0.000000

  FREE ENERGIE OF THE ION-ELECTRON SYSTEM (eV)
  free  energy   TOTEN  =        -7.49615229 eV

  energy  without entropy=       -7.50370169  energy(sigma->0) =       -7.49866875

 writing wavefunctions

 total charge

[...]

 magnetization (x)

# of ion       s       p       d       tot
    1       -0.004  -0.012   1.104   1.089