 vasp.6.3.0 20Jan22 (build Feb 01 2022 16:52:37) complex

 executed on           TETRA_NSC1 date 2022.02.23  15:42:09

 INCAR:
   ISTART = 0
   ICHARG = 2
   SYSTEM = clean Ni(100) surface
   ENCUT = 270
   ISMEAR = 2
   SIGMA = 0.2
   ALGO = Fast
   EDIFF = 1E-6
   ISPIN = 2
   MAGMOM = 5*1
   NSW = 100
   POTIM = 0.8
   IBRION = 1

 POTCAR:    PAW_PBE Ni 02Aug2007
 POTCAR:    PAW_PBE Ni 02Aug2007
   VRHFIN =Ni:

   TITEL  = PAW_PBE Ni 02Aug2007
   POMASS =   58.690; ZVAL   =   10.000    mass and valenz
   ENMAX  =  269.532; ENMIN  =  202.149 eV

  PAW_PBE Ni 02Aug2007                  :

 POSCAR: fcc (100) surface
  positions in cartesian coordinates
 exchange correlation table for  LEXCH =        8
   RHO(1)=    0.500       N(1)  =     2000
   RHO(2)=  100.500       N(2)  =     4000

 ion  position               nearest neighbor table
   1  0.000  0.000  0.000-   2 2.50   2 2.50   2 2.50   2 2.50
   2  0.500  0.500  0.100-   1 2.50   3 2.50   1 2.50   3 2.50   1 2.50   3 2.50   1 2.50   3 2.50

   3  0.000  0.000  0.200-   4 2.50   4 2.50   4 2.50   4 2.50   2 2.50   2 2.50   2 2.50   2 2.50

[...]

   5  0.000  0.000  0.400-   4 2.50   4 2.50   4 2.50   4 2.50

  LATTYP: Found a simple tetragonal cell.
 ALAT       =     2.4960869376
 C/A-ratio  =     7.0710678119

  Lattice vectors:

 A1 = (   1.7650000000,   1.7650000000,   0.0000000000)
 A2 = (  -1.7650000000,   1.7650000000,   0.0000000000)
 A3 = (   0.0000000000,   0.0000000000,  17.6500000000)

Analysis of symmetry for initial positions (statically):
 Subroutine PRICEL returns:
 Original cell was already a primitive cell.

 Routine SETGRP: Setting up the symmetry group for a
 simple tetragonal supercell.

 Subroutine GETGRP returns: Found 16 space group operations
 (whereof  8 operations were pure point group operations)
 out of a pool of 16 trial point group operations.

The static configuration has the point symmetry C_4v.
 The point group associated with its full space group is D_4h.

Analysis of symmetry for dynamics (positions and initial velocities):
 Subroutine PRICEL returns:
 Original cell was already a primitive cell.

[...]

The dynamic configuration has the point symmetry C_4v.
 The point group associated with its full space group is D_4h.

Analysis of constrained symmetry for selective dynamics:
 Subroutine PRICEL returns:
 Original cell was already a primitive cell.

[...]

The constrained configuration has the point symmetry C_4v.

Analysis of structural, dynamic, and magnetic symmetry:
 Subroutine PRICEL returns:
 Original cell was already a primitive cell.

 Routine SETGRP: Setting up the symmetry group for a
 simple tetragonal supercell.

 Subroutine GETGRP returns: Found  8 space group operations
 (whereof  8 operations were pure point group operations)
 out of a pool of 16 trial point group operations.

The overall configuration has the point symmetry C_4v.

 Subroutine INISYM returns: Found  8 space group operations
 (whereof  8 operations are pure point group operations),
 and found     1 'primitive' translations

                                     Primitive cell

  volume of cell :     109.9674

  direct lattice vectors                    reciprocal lattice vectors
     1.765000000  1.765000000  0.000000000     0.283286119  0.283286119  0.000000000
    -1.765000000  1.765000000  0.000000000    -0.283286119  0.283286119  0.000000000
     0.000000000  0.000000000 17.650000000     0.000000000  0.000000000  0.056657224

  length of vectors
     2.496086938  2.496086938 17.650000000     0.400627071  0.400627071  0.056657224

  position of ions in fractional coordinates (direct lattice)
     0.000000000  0.000000000  0.000000000
     0.500000000  0.500000000  0.100000000
     0.000000000  0.000000000  0.200000000
     0.500000000  0.500000000  0.300000000
     0.000000000  0.000000000  0.400000000

  ion indices of the primitive-cell ions
   primitive index   ion index
                 1           1
                 2           2
                 3           3
                 4           4
                 5           5

 KPOINTS: k-points

Automatic generation of k-mesh.
 Grid dimensions read from file:
 generate k-points for:    9    9    1

 Generating k-lattice:

  Cartesian coordinates                     Fractional coordinates (reciprocal lattice)
     0.031476235  0.031476235  0.000000000     0.111111111  0.000000000  0.000000000
    -0.031476235  0.031476235  0.000000000     0.000000000  0.111111111  0.000000000
     0.000000000  0.000000000  0.056657224     0.000000000  0.000000000  1.000000000

  Length of vectors
     0.044514119  0.044514119  0.056657224

  Shift w.r.t. Gamma in fractional coordinates (k-lattice)
     0.000000000  0.000000000  0.000000000

 Subroutine IBZKPT returns following result:

 Found     15 irreducible k-points:

 Following reciprocal coordinates:
            Coordinates               Weight
  0.000000  0.000000  0.000000      1.000000
  0.111111 -0.000000  0.000000      4.000000
  0.222222 -0.000000  0.000000      4.000000
  0.333333  0.000000  0.000000      4.000000
  0.444444 -0.000000  0.000000      4.000000
  0.111111  0.111111  0.000000      4.000000
  0.222222  0.111111  0.000000      8.000000
  0.333333  0.111111  0.000000      8.000000
  0.444444  0.111111  0.000000      8.000000
  0.222222  0.222222  0.000000      4.000000
  0.333333  0.222222  0.000000      8.000000
  0.444444  0.222222  0.000000      8.000000
  0.333333  0.333333  0.000000      4.000000
  0.444444  0.333333  0.000000      8.000000
  0.444444  0.444444  0.000000      4.000000

 Following cartesian coordinates:
            Coordinates               Weight
  0.000000  0.000000  0.000000      1.000000
  0.111111  0.111111  0.000000      4.000000
  0.222222  0.222222  0.000000      4.000000
  0.333333  0.333333  0.000000      4.000000
  0.444444  0.444444  0.000000      4.000000
 -0.000000  0.222222  0.000000      4.000000
  0.111111  0.333333  0.000000      8.000000
  0.222222  0.444444  0.000000      8.000000
  0.333333  0.555556  0.000000      8.000000
 -0.000000  0.444444  0.000000      4.000000
  0.111111  0.555556  0.000000      8.000000
  0.222222  0.666667  0.000000      8.000000
 -0.000000  0.666667  0.000000      4.000000
  0.111111  0.777778  0.000000      8.000000
 -0.000000  0.888889  0.000000      4.000000

 SYSTEM =  clean Ni(100) surface
 POSCAR =  fcc (100) surface

 Startparameter for this run:
   NWRITE =      2    write-flag & timer
   PREC   = normal    normal or accurate (medium, high low for compatibility)
   ISTART =      0    job   : 0-new  1-cont  2-samecut
   ICHARG =      2    charge: 1-file 2-atom 10-const
   ISPIN  =      2    spin polarized calculation?
   LNONCOLLINEAR =      F non collinear calculations
   LSORBIT =      F    spin-orbit coupling
   INIWAV =      1    electr: 0-lowe 1-rand  2-diag
   LASPH  =      F    aspherical Exc in radial PAW
 Electronic Relaxation 1
   ENCUT  =  270.0 eV  19.84 Ry    4.45 a.u.   3.34  3.34 23.65*2*pi/ulx,y,z
   ENINI  =  270.0     initial cutoff
   ENAUG  =  544.6 eV  augmentation charge cutoff
   NELM   =     60;   NELMIN=  2; NELMDL= -5     # of ELM steps
   EDIFF  = 0.1E-05   stopping-criterion for ELM
   LREAL  =      F    real-space projection
   NLSPLINE    = F    spline interpolate recip. space projectors
   LCOMPAT=      F    compatible to vasp.4.4
   GGA_COMPAT  = T    GGA compatible to vasp.4.4-vasp.4.6
   LMAXPAW     = -100 max onsite density
   LMAXMIX     =    2 max onsite mixed and CHGCAR
   VOSKOWN=      0    Vosko Wilk Nusair interpolation
   ROPT   =    0.00000
 Ionic relaxation
   EDIFFG = 0.1E-04   stopping-criterion for IOM
   NSW    =    100    number of steps for IOM
   NBLOCK =      1;   KBLOCK =    100    inner block; outer block
   IBRION =      1    ionic relax: 0-MD 1-quasi-New 2-CG
   NFREE  =      0    steps in history (QN), initial steepest desc. (CG)
   ISIF   =      2    stress and relaxation
   IWAVPR =     11    prediction:  0-non 1-charg 2-wave 3-comb
   ISYM   =      2    0-nonsym 1-usesym 2-fastsym
   LCORR  =      T    Harris-Foulkes like correction to forces

   POTIM  = 0.8000    time-step for ionic-motion
   TEIN   =    0.0    initial temperature
   TEBEG  =    0.0;   TEEND  =   0.0 temperature during run
   SMASS  =  -3.00    Nose mass-parameter (am)
   estimated Nose-frequenzy (Omega)   =  0.10E-29 period in steps = 0.79E+46 mass=  -0.142E-27a.u.
   SCALEE = 1.0000    scale energy and forces
   NPACO  =    256;   APACO  = 10.0  distance and # of slots for P.C.
   PSTRESS=    0.0 pullay stress

  Mass of Ions in am
   POMASS =  58.69
  Ionic Valenz
   ZVAL   =  10.00
  Atomic Wigner-Seitz radii
  virtual crystal weights
   VCA    =   1.00
   NELECT =      50.0000    total number of electrons
   NUPDOWN=      -1.0000    fix difference up-down

 DOS related values:
   EMIN   =  10.00;   EMAX   =-10.00  energy-range for DOS
   EFERMI =   0.00
   ISMEAR =     2;   SIGMA  =   0.20  broadening in eV -4-tet -1-fermi 0-gaus

 Electronic relaxation 2 (details)
   IALGO  =     68    algorithm
   LDIAG  =      T    sub-space diagonalisation (order eigenvalues)
   LSUBROT=      F    optimize rotation matrix (better conditioning)
   TURBO    =      0    0=normal 1=particle mesh
   IRESTART =      0    0=no restart 2=restart with 2 vectors
   NREBOOT  =      0    no. of reboots
   NMIN     =      0    reboot dimension
   EREF     =   0.00    reference energy to select bands
   IMIX   =      4    mixing-type and parameters
     AMIX     =   0.40;   BMIX     =  1.00
     AMIX_MAG =   1.60;   BMIX_MAG =  1.00
     AMIN     =   0.10
     WC   =   100.;   INIMIX=   1;  MIXPRE=   1;  MAXMIX= -45

 Intra band minimization:
   WEIMIN = 0.0010     energy-eigenvalue tresh-hold
   EBREAK =  0.69E-08  absolut break condition
   DEPER  =   0.30     relativ break condition

   TIME   =   0.40     timestep for ELM

  volume/ion in A,a.u.               =      21.99       148.42
  Fermi-wavevector in a.u.,A,eV,Ry     =   1.258858  2.378897 21.561476  1.584724
  Thomas-Fermi vector in A             =   2.392447

 Write flags
   LWAVE        =      T    write WAVECAR
   LDOWNSAMPLE  =      F    k-point downsampling of WAVECAR
   LCHARG       =      T    write CHGCAR
   LVTOT        =      F    write LOCPOT, total local potential
   LVHAR        =      F    write LOCPOT, Hartree potential only
   LELF         =      F    write electronic localiz. function (ELF)
   LORBIT       =      0    0 simple, 1 ext, 2 COOP (PROOUT), +10 PAW based schemes

 Dipole corrections
   LMONO  =      F    monopole corrections only (constant potential shift)
   LDIPOL =      F    correct potential (dipole corrections)
   IDIPOL =      0    1-x, 2-y, 3-z, 4-all directions
   EPSILON=  1.0000000 bulk dielectric constant

 Exchange correlation treatment:
   GGA     =    --    GGA type
   VOSKOWN =     0    Vosko Wilk Nusair interpolation
   LHFCALC =     F    Hartree Fock is set to
   LHFONE  =     F    Hartree Fock one center treatment
   AEXX    =    0.0000 exact exchange contribution

 Linear response parameters
   LEPSILON=     F    determine dielectric tensor
   LRPA    =     F    only Hartree local field effects (RPA)
[...]
  -Hartree energ DENC   =    -14628.04759811
  -exchange      EXHF   =         0.00000000
  -V(xc)+E(xc)   XCENC  =       157.28549210
  PAW double counting   =      4814.16586801    -5148.35356137
  entropy T*S    EENTRO =         0.00886512
  eigenvalues    EBANDS =       328.51274438
  atomic energy  EATOM  =      5388.18037335
  Solvation  Ediel_sol  =         0.00000000
  free energy    TOTEN  =       258.69701586 eV

  energy without entropy =      258.68815074  energy(sigma->0) =      258.69479958

[...]

 eigenvalue-minimisations  :  2180
 total energy-change (2. order) :-0.2730300E+03  (-0.2568988E+03)
 number of electron      50.0000000 magnetization       5.0000000
 augmentation part       50.0000000 magnetization       5.0000000

[...]

 Broyden mixing:
  rms(total) = 0.20458E+01    rms(broyden)= 0.20449E+01
  rms(prec ) = 0.22019E+01
  weight for this iteration     100.00

[...]

 eigenvalues of (default mixing * dielectric matrix)
  average eigenvalue GAMMA=   0.2961
  0.2961

[...]

 average (electrostatic) potential at core
  the test charge radii are     0.9791
  (the norm of the test charge is              1.0000)
       1 -88.7869       2 -89.1146       3 -89.1180       4 -89.1146       5 -88.7869

 E-fermi :   2.2544     XC(G=0):  -7.7026     alpha+bet : -8.1440

 Fermi energy:         2.2543729486

 spin component 1

 k-point     1 :       0.0000    0.0000    0.0000
  band No.  band energies     occupation
      1      -6.2338      1.00000
      2      -5.0226      1.00000
      3      -3.3964      1.00000
      4      -2.2135      1.00000
      5      -2.1697      1.00000
      6      -1.7075      1.00000
      7      -1.3147      1.00000
      8      -0.8496      1.00000
      9      -0.4058      1.00000
     10      -0.1724      1.00000
     11      -0.0049      1.00000
     12      -0.0049      1.00000
     13       0.3962      1.00000
     14       0.3962      1.00000
     15       0.5231      1.00000
     16       0.7641      1.00000
     17       0.9548      1.00000
     18       0.9548      1.00000
     19       0.9617      1.00000
     20       1.0694      1.00000
     21       1.1050      1.00000
     22       1.2329      1.00000
     23       1.4583      1.00000
     24       1.4583      1.00000
     25       1.4662      1.00000
     26       1.6312      0.99983
     27       1.6992      0.99921
     28       1.7235      0.99876
     29       1.7235      0.99876
     30       2.7702      0.00161
     31       4.1053      0.00000
     32       6.7954      0.00000
     33       8.1310      0.00000
     34      10.0074      0.00000
     35      13.1571      0.00000
     36      13.6932      0.00000

[...]

 k-point    15 :       0.4444    0.4444    0.0000
  band No.  band energies     occupation
      1      -2.0913      1.00000
      2      -2.0029      1.00000
      3      -1.6799      1.00000
      4      -1.6606      1.00000
      5      -1.6198      1.00000
      6      -1.3306      1.00000
      7      -1.1957      1.00000
      8      -1.1593      1.00000
      9      -1.0984      1.00000
     10      -0.4198      1.00000
     11      -0.3818      1.00000
     12       0.5012      1.00000
     13       0.5411      1.00000
     14       1.1192      1.00000
     15       1.2235      1.00000
     16       1.3551      1.00000
     17       1.4181      1.00000
     18       1.5129      0.99999
     19       1.5633      0.99997
     20       1.6368      0.99980
     21       1.6468      0.99975
     22       1.7295      0.99862
     23       1.7566      0.99785
     24       1.9249      1.00220
     25       1.9527      1.01033
     26       4.6667      0.00000
     27       5.9033      0.00000
     28       6.3034      0.00000
     29       7.6301      0.00000
     30       8.2803      0.00000
     31       9.8658      0.00000
     32      10.4343      0.00000
     33      11.5751      0.00000
     34      12.1644      0.00000
     35      12.4114      0.00000
     36      12.6935      0.00000
 Fermi energy:         2.2543729486

[...]

 soft charge-density along one line, spin component           1
         0         1         2         3         4         5         6         7         8         9
 total charge-density along one line

[...]

------------------------ aborting loop because EDIFF is reached ----------------------------------------

  FORCE on cell =-STRESS in cart. coord.  units (eV):
  Direction    XX          YY          ZZ          XY          YZ          ZX
  Alpha Z   115.94205   115.94205   115.94205
  Ewald   12288.78830 12288.78830-15346.57777    -0.00000    -0.00000    -0.00000
  Hartree 13791.91269 13791.91269-13003.08591     0.00000    -0.00000    -0.00000
  E(xc)    -274.23959  -274.23959  -274.75611    -0.00000    -0.00000     0.00000
  Local  -27147.70621-27147.70621 27277.82083    -0.00000     0.00000     0.00000
  n-local   -45.43424   -46.99335   -47.74049   -14.31507     0.00000     0.00000
  augment   879.86382   879.86382   884.22174     0.00000     0.00000     0.00000
  Kinetic   381.60171   393.09992   391.16339     7.88777    -0.00000    -0.00000
  Fock        0.00000     0.00000     0.00000     0.00000     0.00000     0.00000
  Total      -4.30194    -4.30194    -3.01227     0.00000     0.00000     0.00000
  in kB     -62.67731   -62.67731   -43.88746     0.00000     0.00000     0.00000

 VOLUME and BASIS-vectors are now :
  energy-cutoff  :      270.00
  volume of cell :      109.97
      direct lattice vectors                 reciprocal lattice vectors
     1.765000000  1.765000000  0.000000000     0.283286119  0.283286119  0.000000000
    -1.765000000  1.765000000  0.000000000    -0.283286119  0.283286119  0.000000000
     0.000000000  0.000000000 17.650000000     0.000000000  0.000000000  0.056657224

[...]

 FORCES acting on ions
    electron-ion (+dipol)            ewald-force                    non-local-force                 convergence-correction
   -.112E-12 0.204E-12 0.285E+04   0.909E-14 0.234E-14 -.285E+04   0.750E-24 0.587E-23 -.248E+01   -.113E-13 -.850E-13 0.306E-02
   -.265E-13 -.138E-12 0.145E+04   -.112E-13 -.202E-13 -.145E+04   -.689E-24 -.262E-23 -.125E+00   -.672E-13 -.137E-12 0.762E-02
   0.908E-14 0.563E-13 0.169E-02   0.116E-13 0.872E-14 -.719E-10   -.412E-24 0.412E-24 -.548E-02   -.567E-13 0.436E-13 -.409E-03
   -.730E-14 -.215E-12 -.145E+04   -.764E-15 -.531E-14 0.145E+04   -.632E-24 -.102E-23 0.105E+00   0.466E-13 -.109E-12 -.738E-02
   0.131E-12 -.125E-12 -.285E+04   -.879E-14 -.131E-13 0.285E+04   -.314E-23 -.182E-23 0.249E+01   0.386E-13 0.160E-12 -.253E-02
   -.575E-14 -.218E-12 0.505E-02   -.934E-16 -.275E-13 0.000E+00   -.412E-23 0.814E-24 -.135E-01   -.501E-13 -.127E-12 0.356E-03

 POSITION                                       TOTAL-FORCE (eV/Angst)
      0.00000      0.00000      0.00000         0.000000      0.000000      0.419202
      0.00000      1.76500      1.76500         0.000000      0.000000     -0.401616
      0.00000      0.00000      3.53000         0.000000      0.000000     -0.002584
      0.00000      1.76500      5.29500        -0.000000     -0.000000      0.392856
      0.00000      0.00000      7.06000        -0.000000      0.000000     -0.407859
    total drift:                               -0.000000     -0.000000     -0.008075

  FREE ENERGIE OF THE ION-ELECTRON SYSTEM (eV)
  free  energy   TOTEN  =       -25.55666527 eV

  energy  without entropy=      -25.55936250  energy(sigma->0) =      -25.55733957

 Quasi-Newton relaxation of ions (Broydens 2nd method)
  g(Force)  = 0.248E-01   g(Stress)= 0.000E+00

 Reset! Starting new Quasi-Newton update for ions

[...]

 d Force = 0.1431441E-01[ 0.388E-02, 0.248E-01]  d Energy = 0.1460378E-01-0.289E-03
 d Force =-0.4605662E+02[-0.465E+02,-0.456E+02]  d Ewald  =-0.4606208E+02 0.545E-02

[...]

 retain information from N=  1 steps
 eigenvalues of (default step * inverse Hessian matrix)
  average eigenvalue of G=   1.1428
 eigenvalue spectrum of G is  1.1428

[...]

 d Force = 0.1943523E-02[ 0.708E-04, 0.382E-02]  d Energy = 0.2211207E-02-0.268E-03
 d Force =-0.1324367E+03[-0.133E+03,-0.132E+03]  d Ewald  =-0.1324371E+03 0.446E-03

[...]

 eigenvalue-minimisations  :  2084
 total energy-change (2. order) : 0.8589772E-05  (-0.7514930E-06)
 number of electron      49.9998836 magnetization       3.2058934
 augmentation part       30.9064886 magnetization       3.0392264

[...]

 Broyden mixing:
  rms(total) = 0.28887E-03    rms(broyden)= 0.28848E-03
  rms(prec ) = 0.33188E-03
  weight for this iteration     100.00

 eigenvalues of (default mixing * dielectric matrix)
  average eigenvalue GAMMA=   0.6364
  2.5192  0.9155  0.6622  0.6109  0.0484  0.1482  0.1124  0.0740

[...]

--------------------------------------- Iteration      5(  10)  ---------------------------------------

 eigenvalue-minimisations  :  1252
 total energy-change (2. order) :-0.7528142E-06  (-0.3332497E-07)
 number of electron      49.9998836 magnetization       3.2058724
 augmentation part       30.9059842 magnetization       3.0391033

 Free energy of the ion-electron system (eV)
  alpha Z        PSCENC =       115.94204576
  Ewald energy   TEWEN  =      9453.09366082
  -Hartree energ DENC   =    -14801.38809286
  -exchange      EXHF   =         0.00000000
  -V(xc)+E(xc)   XCENC  =       152.65048648
  PAW double counting   =      5572.42029065    -5913.77798944
  entropy T*S    EENTRO =         0.00242697
  eigenvalues    EBANDS =         7.30206797
  atomic energy  EATOM  =      5388.18037335
  Solvation  Ediel_sol  =         0.00000000
  free energy    TOTEN  =       -25.57473031 eV

  energy without entropy =      -25.57715728  energy(sigma->0) =      -25.57533705

 average (electrostatic) potential at core
  the test charge radii are     0.9791
  (the norm of the test charge is              1.0000)
       1 -88.7898       2 -89.1126       3 -89.1066       4 -89.1699       5 -88.8284

 E-fermi :   2.2541     XC(G=0):  -7.6747     alpha+bet : -8.1440

 Fermi energy:         2.2540520205

[...]

 k-point    15 :       0.4444    0.4444    0.0000
  band No.  band energies     occupation
      1      -2.1536      1.00000
      2      -2.0254      1.00000
      3      -1.7211      1.00000
      4      -1.6953      1.00000
      5      -1.6716      1.00000
      6      -1.4022      1.00000
      7      -1.2627      1.00000
      8      -1.2334      1.00000
      9      -1.1276      1.00000
     10      -0.4656      1.00000
     11      -0.4290      1.00000
     12       0.4908      1.00000
     13       0.5314      1.00000
     14       1.1187      1.00000
     15       1.2227      1.00000
     16       1.3691      1.00000
     17       1.4192      1.00000
     18       1.5128      0.99999
     19       1.5632      0.99997
     20       1.6276      0.99984
     21       1.6516      0.99972
     22       1.7105      0.99902
     23       1.7491      0.99808
     24       1.8985      0.99764
     25       1.9425      1.00704
     26       4.6364      0.00000
     27       5.8692      0.00000
     28       6.2697      0.00000
     29       7.5851      0.00000
     30       8.3176      0.00000
     31       9.9058      0.00000
     32      10.5060      0.00000
     33      11.5738      0.00000
     34      12.1851      0.00000
     35      12.5253      0.00000
     36      12.5685      0.00000
 Fermi energy:         2.2540520205

 spin component 2

[...]

 k-point    15 :       0.4444    0.4444    0.0000
  band No.  band energies     occupation
      1      -1.7724      1.00000
      2      -1.6693      1.00000
      3      -1.2813      1.00000
      4      -1.0975      1.00000
      5      -1.0886      1.00000
      6      -0.9072      1.00000
      7      -0.6750      1.00000
      8      -0.6104      1.00000
      9      -0.5965      1.00000
     10       0.1559      1.00000
     11       0.1980      1.00000
     12       1.1693      1.00000
     13       1.2133      1.00000
     14       1.7315      0.99856
     15       1.7974      0.99637
     16       2.0821      1.04783
     17       2.1472      0.95709
     18       2.2081      0.73353
     19       2.2295      0.62830
     20       2.3050      0.24346
     21       2.3664      0.02936
     22       2.4701     -0.04738
     23       2.5181     -0.02630
     24       2.7226      0.00318
     25       2.7823      0.00130
     26       4.7481      0.00000
     27       5.9572      0.00000
     28       6.4445      0.00000
     29       7.7108      0.00000
     30       8.4861      0.00000
     31      10.0357      0.00000
     32      10.6387      0.00000
     33      11.8014      0.00000
     34      12.4077      0.00000
     35      12.6338      0.00000
     36      12.7130      0.00000

[...]

 soft charge-density along one line, spin component           2
         0         1         2         3         4         5         6         7         8         9
 total charge-density along one line

------------------------ aborting loop because EDIFF is reached ----------------------------------------

  FORCE on cell =-STRESS in cart. coord.  units (eV):
  Direction    XX          YY          ZZ          XY          YZ          ZX
  Alpha Z   115.94205   115.94205   115.94205
  Ewald   12520.52130 12520.52130-15587.95298     0.00000    -0.00000     0.00000
  Hartree 14017.49850 14017.49850-13233.61193    -0.00000    -0.00000     0.00000
  E(xc)    -274.36546  -274.36546  -274.89310     0.00000     0.00000    -0.00000
  Local  -27605.33610-27605.33610 27749.18412     0.00000     0.00000    -0.00000
  n-local   -44.63113   -46.16100   -46.71961   -14.17753     0.00000    -0.00000
  augment   879.59433   879.59433   884.11146     0.00000    -0.00000     0.00000
  Kinetic   381.94928   393.56274   391.69578     7.97712    -0.00000     0.00000
  Fock        0.00000     0.00000     0.00000     0.00000     0.00000     0.00000
  Total      -3.78543    -3.78543    -2.24422     0.00000     0.00000    -0.00000
  in kB     -55.15207   -55.15207   -32.69726     0.00000     0.00000    -0.00000

 VOLUME and BASIS-vectors are now :
  energy-cutoff  :      270.00
  volume of cell :      109.97
      direct lattice vectors                 reciprocal lattice vectors
     1.765000000  1.765000000  0.000000000     0.283286119  0.283286119  0.000000000
    -1.765000000  1.765000000  0.000000000    -0.283286119  0.283286119  0.000000000
     0.000000000  0.000000000 17.650000000     0.000000000  0.000000000  0.056657224

  length of vectors
     2.496086938  2.496086938 17.650000000     0.400627071  0.400627071  0.056657224

 FORCES acting on ions
    electron-ion (+dipol)            ewald-force                    non-local-force                 convergence-correction
   -.124E-13 0.760E-13 0.286E+04   0.910E-14 0.238E-14 -.286E+04   -.453E-25 -.323E-25 -.248E+01   0.570E-13 0.400E-13 0.355E-02
   0.501E-13 -.218E-12 0.147E+04   -.119E-13 -.189E-13 -.147E+04   -.232E-24 -.181E-24 -.146E+00   0.829E-14 -.146E-12 0.164E-02
   0.248E-13 0.804E-13 0.131E+02   0.420E-14 0.935E-14 -.131E+02   0.417E-24 0.410E-24 0.447E-01   0.883E-14 0.496E-13 -.110E-01
   0.131E-12 -.383E-12 -.145E+04   -.107E-13 -.133E-13 0.145E+04   0.244E-26 0.411E-24 0.819E-01   0.597E-14 -.969E-13 -.851E-02
   0.678E-13 0.825E-13 -.289E+04   0.918E-14 -.713E-14 0.289E+04   0.154E-26 -.154E-26 0.235E+01   -.132E-13 0.803E-13 0.749E-02
   0.262E-12 -.361E-12 0.141E+00   -.934E-16 -.275E-13 0.000E+00   0.143E-24 0.607E-24 -.154E+00   0.669E-13 -.733E-13 -.681E-02

 POSITION                                       TOTAL-FORCE (eV/Angst)
      0.00000      0.00000      0.00000        -0.000000      0.000000      0.425910
      0.00000      1.76500      1.76500         0.000000     -0.000000     -0.402950
      0.00000      0.00000      3.53000        -0.000000     -0.000000     -0.023012
      0.00000      1.76500      5.29871         0.000000      0.000000     -0.001055
      0.00000      0.00000      6.98070        -0.000000     -0.000000      0.001106
    total drift:                                0.000000     -0.000000     -0.019988

  FREE ENERGIE OF THE ION-ELECTRON SYSTEM (eV)
  free  energy   TOTEN  =       -25.57473031 eV

  energy  without entropy=      -25.57715728  energy(sigma->0) =      -25.57533705

 d Force = 0.6467754E-04[-0.553E-05, 0.135E-03]  d Energy = 0.7767143E-04-0.130E-04
 d Force =-0.1056090E+02[-0.106E+02,-0.106E+02]  d Ewald  =-0.1056091E+02 0.360E-05

 Quasi-Newton relaxation of ions (Broydens 2nd method)
  g(Force)  = 0.180E-06   g(Stress)= 0.000E+00

 retain information from N=  2 steps
 eigenvalues of (default step * inverse Hessian matrix)
  average eigenvalue of G=   3.4481
 eigenvalue spectrum of G is  5.6874  1.2088

 reached required accuracy - stopping structural energy minimisation
 writing wavefunctions