 vasp.6.3.0 20Jan22 (build Feb 01 2022 16:52:37) complex

 executed on           TETRA_NSC1 date 2022.02.23  11:23:34

 INCAR:
   SYSTEM = diamond Si
   ISTART = 0
   ICHARG = 2
   ENCUT = 240
   ISMEAR = 0
   SIGMA = 0.1
   NSW = 10
   IBRION = 2
   ISIF = 2
   EDIFFG = -0.0001

 POTCAR:    PAW_PBE Si 05Jan2001
 POTCAR:    PAW_PBE Si 05Jan2001
   VRHFIN =Si: s2p2

   TITEL  = PAW_PBE Si 05Jan2001
   POMASS =   28.085; ZVAL   =    4.000    mass and valenz
   ENMAX  =  245.345; ENMIN  =  184.009 eV

  PAW_PBE Si 05Jan2001                  :

 POSCAR: cubic diamond Si
  positions in direct lattice
 exchange correlation table for  LEXCH =        8
   RHO(1)=    0.500       N(1)  =     2000
   RHO(2)=  100.500       N(2)  =     4000

 ion  position               nearest neighbor table
   1  0.875  0.875  0.875-   2 2.37   2 2.38   2 2.38   2 2.40
   2  0.125  0.125  0.130-   1 2.37   1 2.38   1 2.38   1 2.40

  LATTYP: Found a face centered cubic cell.
 ALAT       =     5.5000000000

  Lattice vectors:

 A1 = (   0.0000000000,   2.7500000000,   2.7500000000)
 A2 = (   2.7500000000,   0.0000000000,   2.7500000000)
 A3 = (   2.7500000000,   2.7500000000,   0.0000000000)

Analysis of symmetry for initial positions (statically):
 Subroutine PRICEL returns:
 Original cell was already a primitive cell.

 Routine SETGRP: Setting up the symmetry group for a
 face centered cubic supercell.

 Subroutine GETGRP returns: Found  4 space group operations
 (whereof  2 operations were pure point group operations)
 out of a pool of 48 trial point group operations.

The static configuration has the point symmetry C_1h.
 The point group associated with its full space group is C_2h.

Analysis of symmetry for dynamics (positions and initial velocities):
 Subroutine PRICEL returns:
 Original cell was already a primitive cell.

 Routine SETGRP: Setting up the symmetry group for a
 face centered cubic supercell.

 Subroutine GETGRP returns: Found  4 space group operations
 (whereof  2 operations were pure point group operations)
 out of a pool of 48 trial point group operations.

The dynamic configuration has the point symmetry C_1h.
 The point group associated with its full space group is C_2h.

 Subroutine INISYM returns: Found  4 space group operations
 (whereof  2 operations are pure point group operations),
 and found     1 'primitive' translations

                                     Primitive cell

  volume of cell :      41.5938

  direct lattice vectors                    reciprocal lattice vectors
     0.000000000  2.750000000  2.750000000    -0.181818182  0.181818182  0.181818182
     2.750000000  0.000000000  2.750000000     0.181818182 -0.181818182  0.181818182
     2.750000000  2.750000000  0.000000000     0.181818182  0.181818182 -0.181818182

  length of vectors
     3.889087297  3.889087297  3.889087297     0.314918329  0.314918329  0.314918329

  position of ions in fractional coordinates (direct lattice)
     0.875000000  0.875000000  0.875000000
     0.125000000  0.125000000  0.130000000

  ion indices of the primitive-cell ions
   primitive index   ion index
                 1           1
                 2           2

 KPOINTS: k-points

Automatic generation of k-mesh.
 Grid dimensions read from file:
 generate k-points for:   11   11   11

 Generating k-lattice:

  Cartesian coordinates                     Fractional coordinates (reciprocal lattice)
    -0.016528926  0.016528926  0.016528926     0.090909091  0.000000000  0.000000000
     0.016528926 -0.016528926  0.016528926     0.000000000  0.090909091  0.000000000
     0.016528926  0.016528926 -0.016528926     0.000000000  0.000000000  0.090909091

  Length of vectors
     0.028628939  0.028628939  0.028628939

  Shift w.r.t. Gamma in fractional coordinates (k-lattice)
     0.000000000  0.000000000  0.000000000

 Subroutine IBZKPT returns following result:

 Found    366 irreducible k-points:

 Following reciprocal coordinates:
            Coordinates               Weight
  0.000000  0.000000  0.000000      1.000000
  0.090909  0.000000  0.000000      4.000000
  0.000000  0.000000  0.090909      2.000000
  0.090909  0.090909  0.090909      2.000000
  0.181818 -0.000000  0.000000      4.000000
  0.000000  0.000000  0.181818      2.000000
  0.181818  0.181818  0.181818      2.000000
  0.272727  0.000000 -0.000000      4.000000
 -0.000000 -0.000000  0.272727      2.000000
  0.272727  0.272727  0.272727      2.000000
  0.363636 -0.000000  0.000000      4.000000
  0.000000  0.000000  0.363636      2.000000
  0.363636  0.363636  0.363636      2.000000
  0.454545  0.000000 -0.000000      4.000000
 -0.000000 -0.000000  0.454545      2.000000
  0.454545  0.454545  0.454545      2.000000
  0.090909  0.090909 -0.000000      2.000000
  0.000000  0.090909  0.090909      4.000000
  0.181818  0.090909  0.000000      4.000000
  0.000000  0.181818  0.090909      4.000000
  0.090909 -0.000000  0.181818      4.000000
  0.090909  0.090909 -0.090909      2.000000
  0.181818  0.090909  0.181818      4.000000
  0.090909 -0.090909 -0.090909      4.000000
  0.181818  0.181818  0.090909      2.000000
  0.272727  0.090909  0.000000      4.000000
 -0.000000  0.272727  0.090909      4.000000
  0.090909  0.000000  0.272727      4.000000
  0.090909  0.090909 -0.181818      2.000000
  0.272727  0.181818  0.272727      4.000000
  0.181818 -0.090909 -0.090909      4.000000
  0.272727  0.272727  0.181818      2.000000
  0.363636  0.090909 -0.000000      4.000000
 -0.000000  0.363636  0.090909      4.000000
  0.090909 -0.000000  0.363636      4.000000
  0.090909  0.090909 -0.272727      2.000000
  0.363636  0.272727  0.363636      4.000000
  0.272727 -0.090909 -0.090909      4.000000
  0.363636  0.363636  0.272727      2.000000
  0.454545  0.090909  0.000000      4.000000
 -0.000000  0.454545  0.090909      4.000000
  0.090909  0.000000  0.454545      4.000000
  0.090909  0.090909 -0.363636      2.000000
  0.454545  0.363636  0.454545      4.000000
  0.363636 -0.090909 -0.090909      4.000000
  0.454545  0.454545  0.363636      2.000000
 -0.454545  0.090909  0.000000      4.000000
 -0.000000 -0.454545  0.090909      4.000000
  0.090909 -0.000000 -0.454545      4.000000
  0.090909  0.090909 -0.454545      2.000000
 -0.454545  0.454545 -0.454545      4.000000
  0.454545 -0.090909 -0.090909      4.000000
 -0.454545 -0.454545  0.454545      2.000000
 -0.363636  0.090909 -0.000000      4.000000
  0.000000 -0.363636  0.090909      4.000000
  0.090909  0.000000 -0.363636      4.000000
  0.090909  0.090909  0.454545      2.000000
 -0.363636 -0.454545 -0.363636      4.000000
 -0.454545 -0.090909 -0.090909      4.000000
 -0.363636 -0.363636 -0.454545      2.000000
[...]
  0.454545 -0.363636  0.272727      4.000000
 -0.181818  0.181818 -0.454545      4.000000
 -0.272727  0.363636  0.181818      4.000000
 -0.363636  0.454545  0.181818      4.000000
  0.181818 -0.363636  0.454545      4.000000
  0.454545  0.181818 -0.363636      4.000000
  0.454545  0.272727 -0.181818      4.000000
  0.181818 -0.454545 -0.272727      4.000000
  0.181818 -0.272727 -0.454545      4.000000
 -0.272727  0.454545  0.181818      4.000000
  0.181818 -0.272727  0.454545      4.000000
  0.454545  0.181818 -0.272727      4.000000
  0.454545  0.272727 -0.272727      4.000000
 -0.272727  0.272727 -0.454545      4.000000
  0.454545 -0.272727  0.272727      4.000000

 Following cartesian coordinates:
            Coordinates               Weight
  0.000000  0.000000  0.000000      1.000000
 -0.090909  0.090909  0.090909      4.000000
  0.090909  0.090909 -0.090909      2.000000
  0.090909  0.090909  0.090909      2.000000
 -0.181818  0.181818  0.181818      4.000000
  0.181818  0.181818 -0.181818      2.000000
  0.181818  0.181818  0.181818      2.000000
 -0.272727  0.272727  0.272727      4.000000
  0.272727  0.272727 -0.272727      2.000000
  0.272727  0.272727  0.272727      2.000000
 -0.363636  0.363636  0.363636      4.000000
  0.363636  0.363636 -0.363636      2.000000
  0.363636  0.363636  0.363636      2.000000
 -0.454545  0.454545  0.454545      4.000000
  0.454545  0.454545 -0.454545      2.000000
  0.454545  0.454545  0.454545      2.000000
 -0.000000  0.000000  0.181818      2.000000
  0.181818  0.000000 -0.000000      4.000000
 -0.090909  0.090909  0.272727      4.000000
  0.272727 -0.090909  0.090909      4.000000
  0.090909  0.272727 -0.090909      4.000000
 -0.090909 -0.090909  0.272727      2.000000
  0.090909  0.272727  0.090909      4.000000
 -0.272727  0.090909  0.090909      4.000000
  0.090909  0.090909  0.272727      2.000000
 -0.181818  0.181818  0.363636      4.000000
  0.363636 -0.181818  0.181818      4.000000
  0.181818  0.363636 -0.181818      4.000000
 -0.181818 -0.181818  0.363636      2.000000
  0.181818  0.363636  0.181818      4.000000
 -0.363636  0.181818  0.181818      4.000000
  0.181818  0.181818  0.363636      2.000000
 -0.272727  0.272727  0.454545      4.000000
  0.454545 -0.272727  0.272727      4.000000
  0.272727  0.454545 -0.272727      4.000000
 -0.272727 -0.272727  0.454545      2.000000
  0.272727  0.454545  0.272727      4.000000
 -0.454545  0.272727  0.272727      4.000000
  0.272727  0.272727  0.454545      2.000000
 -0.363636  0.363636  0.545455      4.000000
  0.545455 -0.363636  0.363636      4.000000
  0.363636  0.545455 -0.363636      4.000000
 -0.363636 -0.363636  0.545455      2.000000
  0.363636  0.545455  0.363636      4.000000
 -0.545455  0.363636  0.363636      4.000000
  0.363636  0.363636  0.545455      2.000000
  0.545455 -0.545455 -0.363636      4.000000
 -0.363636  0.545455 -0.545455      4.000000
 -0.545455 -0.363636  0.545455      4.000000
 -0.454545 -0.454545  0.636364      2.000000
  0.454545 -1.363636  0.454545      4.000000
 -0.636364  0.454545  0.454545      4.000000
  0.454545  0.454545 -1.363636      2.000000
  0.454545 -0.454545 -0.272727      4.000000
 -0.272727  0.454545 -0.454545      4.000000
 -0.454545 -0.272727  0.454545      4.000000
  0.454545  0.454545 -0.272727      2.000000
 -0.454545 -0.272727 -0.454545      4.000000
  0.272727 -0.454545 -0.454545      4.000000
 -0.454545 -0.454545 -0.272727      2.000000
[...]
 -0.545455  1.090909 -0.181818      4.000000
 -0.090909 -0.818182  0.454545      4.000000
  0.818182 -0.454545 -0.090909      4.000000
  1.000000 -0.636364 -0.090909      4.000000
 -0.090909  1.000000 -0.636364      4.000000
 -0.636364 -0.090909  1.000000      4.000000
 -0.363636 -0.000000  0.909091      4.000000
 -0.909091  0.363636  0.000000      4.000000
 -0.909091 -0.000000  0.363636      4.000000
  0.909091 -0.545455 -0.000000      4.000000
  0.000000  0.909091 -0.545455      4.000000
 -0.545455  0.000000  0.909091      4.000000
 -0.454545 -0.090909  1.000000      4.000000
  0.090909 -1.000000  0.454545      4.000000
 -0.454545  1.000000 -0.090909      4.000000

 SYSTEM =  diamond Si
 POSCAR =  cubic diamond Si

 Startparameter for this run:
   NWRITE =      2    write-flag & timer
   PREC   = normal    normal or accurate (medium, high low for compatibility)
   ISTART =      0    job   : 0-new  1-cont  2-samecut
   ICHARG =      2    charge: 1-file 2-atom 10-const
   ISPIN  =      1    spin polarized calculation?
[...]
 k-point  13 :   0.3636 0.3636 0.3636  plane waves:     353
 k-point  14 :   0.4545 0.0000-0.0000  plane waves:     356
 k-point  15 :  -0.0000-0.0000 0.4545  plane waves:     356
 k-point  16 :   0.4545 0.4545 0.4545  plane waves:     356
 k-point  17 :   0.0909 0.0909-0.0000  plane waves:     335
 k-point  18 :   0.0000 0.0909 0.0909  plane waves:     335
 k-point  19 :   0.1818 0.0909 0.0000  plane waves:     345
 k-point  20 :   0.0000 0.1818 0.0909  plane waves:     345
 k-point  21 :   0.0909-0.0000 0.1818  plane waves:     345
 k-point  22 :   0.0909 0.0909-0.0909  plane waves:     345
 k-point  23 :   0.1818 0.0909 0.1818  plane waves:     345
 k-point  24 :   0.0909-0.0909-0.0909  plane waves:     345
 k-point  25 :   0.1818 0.1818 0.0909  plane waves:     345
 k-point  26 :   0.2727 0.0909 0.0000  plane waves:     343
 k-point  27 :  -0.0000 0.2727 0.0909  plane waves:     343
 k-point  28 :   0.0909 0.0000 0.2727  plane waves:     343
 k-point  29 :   0.0909 0.0909-0.1818  plane waves:     343
 k-point  30 :   0.2727 0.1818 0.2727  plane waves:     343
 k-point  31 :   0.1818-0.0909-0.0909  plane waves:     343
 k-point  32 :   0.2727 0.2727 0.1818  plane waves:     343
 k-point  33 :   0.3636 0.0909-0.0000  plane waves:     349
 k-point  34 :  -0.0000 0.3636 0.0909  plane waves:     349
 k-point  35 :   0.0909-0.0000 0.3636  plane waves:     349
 k-point  36 :   0.0909 0.0909-0.2727  plane waves:     349
 k-point  37 :   0.3636 0.2727 0.3636  plane waves:     349
 k-point  38 :   0.2727-0.0909-0.0909  plane waves:     349
 k-point  39 :   0.3636 0.3636 0.2727  plane waves:     349
 k-point  40 :   0.4545 0.0909 0.0000  plane waves:     347
 k-point  41 :  -0.0000 0.4545 0.0909  plane waves:     347
 k-point  42 :   0.0909 0.0000 0.4545  plane waves:     347
 k-point  43 :   0.0909 0.0909-0.3636  plane waves:     347
 k-point  44 :   0.4545 0.3636 0.4545  plane waves:     347
 k-point  45 :   0.3636-0.0909-0.0909  plane waves:     347
 k-point  46 :   0.4545 0.4545 0.3636  plane waves:     347
 k-point  47 :  -0.4545 0.0909 0.0000  plane waves:     353
 k-point  48 :  -0.0000-0.4545 0.0909  plane waves:     353
 k-point  49 :   0.0909-0.0000-0.4545  plane waves:     353
 k-point  50 :   0.0909 0.0909-0.4545  plane waves:     353
 k-point  51 :  -0.4545 0.4545-0.4545  plane waves:     353
 k-point  52 :   0.4545-0.0909-0.0909  plane waves:     353
 k-point  53 :  -0.4545-0.4545 0.4545  plane waves:     353
 k-point  54 :  -0.3636 0.0909-0.0000  plane waves:     352
 k-point  55 :   0.0000-0.3636 0.0909  plane waves:     352
 k-point  56 :   0.0909 0.0000-0.3636  plane waves:     352
 k-point  57 :   0.0909 0.0909 0.4545  plane waves:     352
 k-point  58 :  -0.3636-0.4545-0.3636  plane waves:     352
 k-point  59 :  -0.4545-0.0909-0.0909  plane waves:     352
 k-point  60 :  -0.3636-0.3636-0.4545  plane waves:     352
[...]
 k-point 352 :   0.4545-0.3636 0.2727  plane waves:     359
 k-point 353 :  -0.1818 0.1818-0.4545  plane waves:     359
 k-point 354 :  -0.2727 0.3636 0.1818  plane waves:     359
 k-point 355 :  -0.3636 0.4545 0.1818  plane waves:     355
 k-point 356 :   0.1818-0.3636 0.4545  plane waves:     355
 k-point 357 :   0.4545 0.1818-0.3636  plane waves:     355
 k-point 358 :   0.4545 0.2727-0.1818  plane waves:     355
 k-point 359 :   0.1818-0.4545-0.2727  plane waves:     355
 k-point 360 :   0.1818-0.2727-0.4545  plane waves:     355
 k-point 361 :  -0.2727 0.4545 0.1818  plane waves:     355
 k-point 362 :   0.1818-0.2727 0.4545  plane waves:     355
 k-point 363 :   0.4545 0.1818-0.2727  plane waves:     355
 k-point 364 :   0.4545 0.2727-0.2727  plane waves:     355
 k-point 365 :  -0.2727 0.2727-0.4545  plane waves:     355
 k-point 366 :   0.4545-0.2727 0.2727  plane waves:     355

 maximum and minimum number of plane-waves per node :       360      335

 maximum number of plane-waves:       360
 maximum index in each direction:
   IXMAX=    5   IYMAX=    5   IZMAX=    5
   IXMIN=   -5   IYMIN=   -5   IZMIN=   -5

 serial   3D FFT for wavefunctions
 parallel 3D FFT for charge:
    minimum data exchange during FFTs selected (reduces bandwidth)

 Broyden mixing: mesh for mixing (old mesh)
   NGX =  9   NGY =  9   NGZ =  9
  (NGX  = 32   NGY  = 32   NGZ  = 32)
  gives a total of    729 points

 initial charge density was supplied:
 charge density of overlapping atoms calculated
 number of electron       8.0000000 magnetization
 keeping initial charge density in first step

 Maximum index for augmentation-charges          820 (set IRDMAX)

 First call to EWALD:  gamma=   0.512
 Maximum number of real-space cells 3x 3x 3
 Maximum number of reciprocal cells 3x 3x 3

--------------------------------------- Iteration      1(   1)  ---------------------------------------

 eigenvalue-minimisations  :  6032
 total energy-change (2. order) :-0.1997345E+01  (-0.2063657E+03)
 number of electron       8.0000000 magnetization
 augmentation part        8.0000000 magnetization

 Free energy of the ion-electron system (eV)
  alpha Z        PSCENC =         3.23732588
  Ewald energy   TEWEN  =      -225.65014771
  -Hartree energ DENC   =       -11.58626602
  -exchange      EXHF   =         0.00000000
  -V(xc)+E(xc)   XCENC  =       -18.75111362
  PAW double counting   =       176.24759923     -141.06103558
  entropy T*S    EENTRO =        -0.00233018
  eigenvalues    EBANDS =         9.44706990
  atomic energy  EATOM  =       206.12155316
  Solvation  Ediel_sol  =         0.00000000
  free energy    TOTEN  =        -1.99734494 eV

  energy without entropy =       -1.99501476  energy(sigma->0) =       -1.99617985

[...]

 Broyden mixing:
  rms(total) = 0.51894E+00    rms(broyden)= 0.51892E+00
  rms(prec ) = 0.93805E+00
  weight for this iteration     100.00

[...]

 eigenvalue-minimisations  :  6712
 total energy-change (2. order) : 0.1084279E+00  (-0.6921303E-02)
 number of electron       8.0000001 magnetization
 augmentation part       -0.4619405 magnetization

[...]

 eigenvalues of (default mixing * dielectric matrix)
  average eigenvalue GAMMA=   2.5642
  2.5642

[...]

 average (electrostatic) potential at core
  the test charge radii are     0.9892
  (the norm of the test charge is              1.0000)
       1 -83.6745       2 -83.6745

 E-fermi :   5.8262     XC(G=0):  -9.2622     alpha+bet :-11.5327

 Fermi energy:         5.8261915396

 k-point     1 :       0.0000    0.0000    0.0000
  band No.  band energies     occupation
      1      -6.2531      2.00000
      2       5.3673      2.00000
      3       5.4599      2.00000
      4       5.5522      1.99989
      5       7.9554      0.00000
      6       8.0098      0.00000
      7       8.0669      0.00000
      8       8.3874      0.00000

[...]

 soft charge-density along one line, spin component           1
         0         1         2         3         4         5         6         7         8         9
 total charge-density along one line

------------------------ aborting loop because EDIFF is reached ----------------------------------------

  FORCE on cell =-STRESS in cart. coord.  units (eV):
  Direction    XX          YY          ZZ          XY          YZ          ZX
  Alpha Z     3.23733     3.23733     3.23733
  Ewald     -75.22129   -75.22129   -75.20767     0.00615    -1.05321    -1.05321
  Hartree     5.12223     5.12223     5.12305     0.00060    -0.12276    -0.12276
  E(xc)     -25.16996   -25.16996   -25.17015    -0.00010     0.00826     0.00826
  Local     -29.88737   -29.88737   -29.90173    -0.00538     1.11513     1.11513
  n-local    77.20897    77.43358    77.32545     0.00237    -0.26597    -0.15406
  augment   -11.60599   -11.60599   -11.60622    -0.00026     0.00942     0.00942
  Kinetic    55.54971    56.00923    55.77837     0.00022     0.08505     0.18993
  Fock        0.00000     0.00000     0.00000     0.00000     0.00000     0.00000
  Total      -0.42432    -0.42432    -0.42158     0.00360    -0.11567    -0.11567
  in kB     -16.34451   -16.34451   -16.23906     0.13864    -4.45575    -4.45575

 VOLUME and BASIS-vectors are now :
  energy-cutoff  :      240.00
  volume of cell :       41.59
      direct lattice vectors                 reciprocal lattice vectors
     0.000000000  2.750000000  2.750000000    -0.181818182  0.181818182  0.181818182
     2.750000000  0.000000000  2.750000000     0.181818182 -0.181818182  0.181818182
     2.750000000  2.750000000  0.000000000     0.181818182  0.181818182 -0.181818182

[...]

 FORCES acting on ions
    electron-ion (+dipol)            ewald-force                    non-local-force                 convergence-correction
   -.312E+00 -.312E+00 0.176E-01   0.319E+00 0.319E+00 -.146E-01   0.166E+00 0.166E+00 -.903E-02   -.115E-03 -.115E-03 0.242E-04
   0.312E+00 0.312E+00 -.176E-01   -.319E+00 -.319E+00 0.146E-01   -.166E+00 -.166E+00 0.903E-02   0.115E-03 0.115E-03 -.242E-04
   0.207E-05 0.207E-05 -.121E-04   0.222E-15 -.555E-15 -.331E-15   0.000E+00 0.000E+00 0.000E+00   0.134E-08 0.134E-08 0.427E-10

 POSITION                                       TOTAL-FORCE (eV/Angst)
      4.81250      4.81250      4.81250         0.173725      0.173725     -0.006011
      0.70125      0.70125      0.68750        -0.173725     -0.173725      0.006011
    total drift:                                0.000002      0.000002     -0.000012

  FREE ENERGIE OF THE ION-ELECTRON SYSTEM (eV)
  free  energy   TOTEN  =       -10.82069521 eV

  energy  without entropy=      -10.82069516  energy(sigma->0) =      -10.82069518

[...]

 eigenvalues of (default mixing * dielectric matrix)
  average eigenvalue GAMMA=   1.4002
  1.4002

[...]

 d Force = 0.2285581E-02[-0.126E-02, 0.583E-02]  d Energy = 0.2270694E-02 0.149E-04
 d Force = 0.4179447E-02[-0.235E-02, 0.107E-01]  d Ewald  = 0.4172914E-02 0.653E-05

 Steepest descent step on ions:
 trial-energy change:   -0.002271  1 .order   -0.002286   -0.005827    0.001256
  (g-gl).g = 0.583E-02      g.g   = 0.583E-02  gl.gl    = 0.000E+00
 g(Force)  = 0.583E-02   g(Stress)= 0.000E+00 ortho     = 0.000E+00
 gamma     =   0.00000
 trial     =   1.00000
 opt step  =   0.82265  (harmonic =   0.82265) maximal distance =0.00689463
 next E    =   -10.823092   (d E  =  -0.00240)

[...]

 d Force = 0.1135526E-03[ 0.431E-05, 0.223E-03]  d Energy = 0.1171127E-03-0.356E-05
 d Force = 0.2112744E-03[ 0.655E-05, 0.416E-03]  d Ewald  = 0.2113092E-03-0.348E-07

[...]

 d Force = 0.3755724E-07[-0.783E-08, 0.829E-07]  d Energy =-0.5438763E-06 0.581E-06
 d Force = 0.5010810E-07[-0.258E-07, 0.126E-06]  d Ewald  = 0.5010833E-07-0.227E-12

[...]

 d Force = 0.5646851E-09[ 0.454E-09, 0.675E-09]  d Energy =-0.7884040E-08 0.845E-08
 d Force = 0.1662873E-08[ 0.110E-08, 0.223E-08]  d Ewald  = 0.1662897E-08-0.284E-13

[...]

 d Force =-0.2271071E-09[-0.133E-08, 0.879E-09]  d Energy =-0.7665335E-10-0.150E-09
 d Force = 0.1083288E-10[-0.210E-08, 0.212E-08]  d Ewald  = 0.1080025E-10 0.284E-13

[...]

 d Force =-0.1225392E-11[-0.148E-09, 0.145E-09]  d Energy =-0.2245315E-10 0.212E-10
 d Force =-0.7287802E-10[-0.288E-09, 0.142E-09]  d Ewald  =-0.7290168E-10 0.284E-13

[...]

 eigenvalue-minimisations  :  2928
 total energy-change (2. order) : 0.1307399E-11  (-0.4108387E-11)
 number of electron       8.0000001 magnetization
 augmentation part       -0.4565268 magnetization

[...]

 d Force = 0.3662864E-10[-0.117E-11, 0.744E-10]  d Energy = 0.2557954E-10 0.110E-10
 d Force = 0.9040292E-10[ 0.358E-10, 0.145E-09]  d Ewald  = 0.9040946E-10 0.000E+00

[...]

 Broyden mixing:
  rms(total) = 0.23339E-03    rms(broyden)= 0.23311E-03
  rms(prec ) = 0.35522E-03
  weight for this iteration     100.00

[...]

--------------------------------------- Iteration     10(   2)  ---------------------------------------

 eigenvalue-minimisations  :  2984
 total energy-change (2. order) :-0.1269697E-06  (-0.1254262E-06)
 number of electron       8.0000001 magnetization
 augmentation part       -0.4565268 magnetization

 Free energy of the ion-electron system (eV)
  alpha Z        PSCENC =         3.23732588
  Ewald energy   TEWEN  =      -225.65453453
  -Hartree energ DENC   =       -15.36784461
  -exchange      EXHF   =         0.00000000
  -V(xc)+E(xc)   XCENC  =       -18.12798216
  PAW double counting   =       965.84220515     -930.85413016
  entropy T*S    EENTRO =        -0.00000000
  eigenvalues    EBANDS =         3.98032343
  atomic energy  EATOM  =       206.12155316
  Solvation  Ediel_sol  =         0.00000000
  free energy    TOTEN  =       -10.82308384 eV

  energy without entropy =      -10.82308383  energy(sigma->0) =      -10.82308384

 average (electrostatic) potential at core
  the test charge radii are     0.9892
  (the norm of the test charge is              1.0000)
       1 -83.6743       2 -83.6743

 E-fermi :   5.7913     XC(G=0):  -9.2617     alpha+bet :-11.5327

 Fermi energy:         5.7913475975

[...]

 k-point   366 :       0.4545   -0.2727    0.2727
  band No.  band energies     occupation
      1      -2.4689      2.00000
      2      -1.7483      2.00000
      3       1.4970      2.00000
      4       2.1692      2.00000
      5       8.7991      0.00000
      6      10.0832      0.00000
      7      10.7206      0.00000
      8      10.7516      0.00000

 soft charge-density along one line, spin component           1
         0         1         2         3         4         5         6         7         8         9
 total charge-density along one line

------------------------ aborting loop because EDIFF is reached ----------------------------------------

  FORCE on cell =-STRESS in cart. coord.  units (eV):
  Direction    XX          YY          ZZ          XY          YZ          ZX
  Alpha Z     3.23733     3.23733     3.23733
  Ewald     -75.21821   -75.21821   -75.21821     0.00643     0.00089     0.00089
  Hartree     5.12262     5.12262     5.12262     0.00084     0.00011     0.00011
  E(xc)     -25.17010   -25.17010   -25.17010    -0.00004     0.00000     0.00000
  Local     -29.89049   -29.89049   -29.89049    -0.00712    -0.00094    -0.00094
  n-local    77.21017    77.43037    77.32026     0.00130    -0.06261     0.06300
  augment   -11.60587   -11.60587   -11.60585    -0.00014    -0.00006    -0.00006
  Kinetic    55.54945    56.00757    55.77851    -0.00102    -0.05424     0.05400
  Fock        0.00000     0.00000     0.00000     0.00000     0.00000     0.00000
  Total      -0.42596    -0.42596    -0.42595     0.00026     0.00008     0.00008
  in kB     -16.40767   -16.40767   -16.40727     0.01009     0.00295     0.00295

 VOLUME and BASIS-vectors are now :
  energy-cutoff  :      240.00
  volume of cell :       41.59
      direct lattice vectors                 reciprocal lattice vectors
     0.000000000  2.750000000  2.750000000    -0.181818182  0.181818182  0.181818182
     2.750000000  0.000000000  2.750000000     0.181818182 -0.181818182  0.181818182
     2.750000000  2.750000000  0.000000000     0.181818182  0.181818182 -0.181818182

  length of vectors
     3.889087297  3.889087297  3.889087297     0.314918329  0.314918329  0.314918329

 FORCES acting on ions
    electron-ion (+dipol)            ewald-force                    non-local-force                 convergence-correction
   0.322E-03 0.322E-03 0.212E-02   -.270E-03 -.270E-03 -.195E-02   -.184E-03 -.184E-03 -.982E-03   -.101E-04 -.101E-04 -.289E-03
   -.320E-03 -.320E-03 -.212E-02   0.270E-03 0.270E-03 0.195E-02   0.184E-03 0.184E-03 0.982E-03   0.101E-04 0.101E-04 0.289E-03
   0.127E-05 0.127E-05 -.269E-05   0.228E-15 -.605E-15 -.347E-15   -.190E-18 -.190E-18 -.867E-18   0.233E-08 0.233E-08 0.150E-09

 POSITION                                       TOTAL-FORCE (eV/Angst)
      4.81938      4.81938      4.81254        -0.000143     -0.000143     -0.001100
      0.69437      0.69437      0.68746         0.000143      0.000143      0.001100
    total drift:                                0.000001      0.000001     -0.000003

  FREE ENERGIE OF THE ION-ELECTRON SYSTEM (eV)
  free  energy   TOTEN  =       -10.82308384 eV

  energy  without entropy=      -10.82308383  energy(sigma->0) =      -10.82308384

 d Force = 0.1375336E-05[-0.621E-06, 0.337E-05]  d Energy = 0.1378151E-05-0.281E-08
 d Force = 0.2539810E-05[-0.110E-05, 0.618E-05]  d Ewald  = 0.2539819E-05-0.853E-11

 Conjugate gradient step on ions:
 trial-energy change:   -0.000001  1 .order   -0.000001   -0.000003    0.000001
  (g-gl).g = 0.348E-05      g.g   = 0.350E-05  gl.gl    = 0.583E-02
 g(Force)  = 0.350E-05   g(Stress)= 0.000E+00 ortho     = 0.128E-07
 gamma     =   0.00060
 trial     =   0.96397
 opt step  =   0.81406  (harmonic =   0.81406) maximal distance =0.00023624
 next E    =   -10.823084   (d E  =  -0.00000)

 writing wavefunctions