 vasp.6.3.0 20Jan22 (build Feb 01 2022 16:52:37) complex

 executed on           TETRA_NSC1 date 2022.02.23  07:23:25

 INCAR:
   SYSTEM = diamond Si
   ISTART = 0
   ICHARG = 2
   ENCUT = 240
   ISMEAR = -5
   LORBIT = 11

 POTCAR:    PAW_PBE Si 05Jan2001
 POTCAR:    PAW_PBE Si 05Jan2001
   VRHFIN =Si: s2p2

   TITEL  = PAW_PBE Si 05Jan2001
   POMASS =   28.085; ZVAL   =    4.000    mass and valenz
   ENMAX  =  245.345; ENMIN  =  184.009 eV

  PAW_PBE Si 05Jan2001                  :

 POSCAR: cubic diamond Si
  positions in direct lattice
 exchange correlation table for  LEXCH =        8
   RHO(1)=    0.500       N(1)  =     2000
   RHO(2)=  100.500       N(2)  =     4000

 ion  position               nearest neighbor table
   1  0.875  0.875  0.875-   2 2.38   2 2.38   2 2.38   2 2.38
   2  0.125  0.125  0.125-   1 2.38   1 2.38   1 2.38   1 2.38

  LATTYP: Found a face centered cubic cell.
 ALAT       =     5.5000000000

  Lattice vectors:

 A1 = (   0.0000000000,   2.7500000000,   2.7500000000)
 A2 = (   2.7500000000,   0.0000000000,   2.7500000000)
 A3 = (   2.7500000000,   2.7500000000,   0.0000000000)

Analysis of symmetry for initial positions (statically):
 Subroutine PRICEL returns:
 Original cell was already a primitive cell.

 Routine SETGRP: Setting up the symmetry group for a
 face centered cubic supercell.

 Subroutine GETGRP returns: Found 48 space group operations
 (whereof 12 operations were pure point group operations)
 out of a pool of 48 trial point group operations.

The static configuration has the point symmetry D_3d.
 The point group associated with its full space group is O_h .

Analysis of symmetry for dynamics (positions and initial velocities):
 Subroutine PRICEL returns:
 Original cell was already a primitive cell.

 Routine SETGRP: Setting up the symmetry group for a
 face centered cubic supercell.

 Subroutine GETGRP returns: Found 48 space group operations
 (whereof 12 operations were pure point group operations)
 out of a pool of 48 trial point group operations.

The dynamic configuration has the point symmetry D_3d.
 The point group associated with its full space group is O_h .

 Subroutine INISYM returns: Found 48 space group operations
 (whereof 12 operations are pure point group operations),
 and found     1 'primitive' translations

                                     Primitive cell

  volume of cell :      41.5938

  direct lattice vectors                    reciprocal lattice vectors
     0.000000000  2.750000000  2.750000000    -0.181818182  0.181818182  0.181818182
     2.750000000  0.000000000  2.750000000     0.181818182 -0.181818182  0.181818182
     2.750000000  2.750000000  0.000000000     0.181818182  0.181818182 -0.181818182

  length of vectors
     3.889087297  3.889087297  3.889087297     0.314918329  0.314918329  0.314918329

  position of ions in fractional coordinates (direct lattice)
     0.875000000  0.875000000  0.875000000
     0.125000000  0.125000000  0.125000000

  ion indices of the primitive-cell ions
   primitive index   ion index
                 1           1
                 2           2

 KPOINTS: k-points

Automatic generation of k-mesh.
 Grid dimensions read from file:
 generate k-points for:   11   11   11

 Generating k-lattice:

  Cartesian coordinates                     Fractional coordinates (reciprocal lattice)
    -0.016528926  0.016528926  0.016528926     0.090909091  0.000000000  0.000000000
     0.016528926 -0.016528926  0.016528926     0.000000000  0.090909091  0.000000000
     0.016528926  0.016528926 -0.016528926     0.000000000  0.000000000  0.090909091

  Length of vectors
     0.028628939  0.028628939  0.028628939

  Shift w.r.t. Gamma in fractional coordinates (k-lattice)
     0.000000000  0.000000000  0.000000000

 TETIRR: Found    201 inequivalent tetrahedra from     7986

 Subroutine IBZKPT returns following result:

 Found     56 irreducible k-points:

 Following reciprocal coordinates:
            Coordinates               Weight
  0.000000  0.000000  0.000000      1.000000
  0.090909  0.000000  0.000000      8.000000
  0.181818 -0.000000  0.000000      8.000000
  0.272727  0.000000 -0.000000      8.000000
  0.363636 -0.000000  0.000000      8.000000
  0.454545  0.000000 -0.000000      8.000000
  0.090909  0.090909 -0.000000      6.000000
  0.181818  0.090909  0.000000     24.000000
  0.272727  0.090909  0.000000     24.000000
  0.363636  0.090909 -0.000000     24.000000
  0.454545  0.090909  0.000000     24.000000
 -0.454545  0.090909  0.000000     24.000000
 -0.363636  0.090909 -0.000000     24.000000
 -0.272727  0.090909 -0.000000     24.000000
 -0.181818  0.090909  0.000000     24.000000
 -0.090909  0.090909 -0.000000     12.000000
  0.181818  0.181818 -0.000000      6.000000
  0.272727  0.181818  0.000000     24.000000
  0.363636  0.181818  0.000000     24.000000
  0.454545  0.181818  0.000000     24.000000
 -0.454545  0.181818  0.000000     24.000000
 -0.363636  0.181818  0.000000     24.000000
 -0.272727  0.181818  0.000000     24.000000
 -0.181818  0.181818 -0.000000     12.000000
  0.272727  0.272727 -0.000000      6.000000
  0.363636  0.272727  0.000000     24.000000
  0.454545  0.272727 -0.000000     24.000000
 -0.454545  0.272727  0.000000     24.000000
 -0.363636  0.272727  0.000000     24.000000
 -0.272727  0.272727  0.000000     12.000000
  0.363636  0.363636 -0.000000      6.000000
  0.454545  0.363636 -0.000000     24.000000
 -0.454545  0.363636 -0.000000     24.000000
 -0.363636  0.363636 -0.000000     12.000000
  0.454545  0.454545 -0.000000      6.000000
 -0.454545  0.454545  0.000000     12.000000
  0.272727  0.181818  0.090909     24.000000
  0.363636  0.181818  0.090909     48.000000
  0.454545  0.181818  0.090909     48.000000
 -0.454545  0.181818  0.090909     48.000000
  0.363636  0.272727  0.090909     24.000000
  0.454545  0.272727  0.090909     48.000000
 -0.454545  0.272727  0.090909     48.000000
 -0.363636  0.272727  0.090909     48.000000
 -0.272727  0.272727  0.090909     48.000000
 -0.181818  0.272727  0.090909     24.000000
  0.454545  0.363636  0.090909     24.000000
 -0.454545  0.363636  0.090909     48.000000
 -0.363636  0.363636  0.090909     48.000000
 -0.272727  0.363636  0.090909     24.000000
 -0.454545  0.454545  0.090909     24.000000
 -0.363636  0.454545  0.090909     24.000000
 -0.454545  0.363636  0.181818     24.000000
 -0.363636  0.363636  0.181818     48.000000
 -0.363636  0.454545  0.181818     24.000000
 -0.272727  0.454545  0.181818     24.000000

 Following cartesian coordinates:
            Coordinates               Weight
  0.000000  0.000000  0.000000      1.000000
 -0.090909  0.090909  0.090909      8.000000
 -0.181818  0.181818  0.181818      8.000000
 -0.272727  0.272727  0.272727      8.000000
 -0.363636  0.363636  0.363636      8.000000
 -0.454545  0.454545  0.454545      8.000000
 -0.000000  0.000000  0.181818      6.000000
 -0.090909  0.090909  0.272727     24.000000
 -0.181818  0.181818  0.363636     24.000000
 -0.272727  0.272727  0.454545     24.000000
 -0.363636  0.363636  0.545455     24.000000
  0.545455 -0.545455 -0.363636     24.000000
  0.454545 -0.454545 -0.272727     24.000000
  0.363636 -0.363636 -0.181818     24.000000
  0.272727 -0.272727 -0.090909     24.000000
  0.181818 -0.181818 -0.000000     12.000000
 -0.000000  0.000000  0.363636      6.000000
 -0.090909  0.090909  0.454545     24.000000
 -0.181818  0.181818  0.545455     24.000000
 -0.272727  0.272727  0.636364     24.000000
  0.636364 -0.636364 -0.272727     24.000000
  0.545455 -0.545455 -0.181818     24.000000
  0.454545 -0.454545 -0.090909     24.000000
  0.363636 -0.363636 -0.000000     12.000000
 -0.000000 -0.000000  0.545455      6.000000
 -0.090909  0.090909  0.636364     24.000000
 -0.181818  0.181818  0.727273     24.000000
  0.727273 -0.727273 -0.181818     24.000000
  0.636364 -0.636364 -0.090909     24.000000
  0.545455 -0.545455 -0.000000     12.000000
 -0.000000  0.000000  0.727273      6.000000
 -0.090909  0.090909  0.818182     24.000000
  0.818182 -0.818182 -0.090909     24.000000
  0.727273 -0.727273 -0.000000     12.000000
 -0.000000  0.000000  0.909091      6.000000
  0.909091 -0.909091 -0.000000     12.000000
  0.000000  0.181818  0.363636     24.000000
 -0.090909  0.272727  0.454545     48.000000
 -0.181818  0.363636  0.545455     48.000000
  0.727273 -0.545455 -0.363636     48.000000
  0.000000  0.181818  0.545455     24.000000
 -0.090909  0.272727  0.636364     48.000000
  0.818182 -0.636364 -0.272727     48.000000
  0.727273 -0.545455 -0.181818     48.000000
  0.636364 -0.454545 -0.090909     48.000000
  0.545455 -0.363636  0.000000     24.000000
  0.000000  0.181818  0.727273     24.000000
  0.909091 -0.727273 -0.181818     48.000000
  0.818182 -0.636364 -0.090909     48.000000
  0.727273 -0.545455 -0.000000     24.000000
  1.000000 -0.818182 -0.090909     24.000000
  0.909091 -0.727273 -0.000000     24.000000
  1.000000 -0.636364 -0.272727     24.000000
  0.909091 -0.545455 -0.181818     48.000000
  1.000000 -0.636364 -0.090909     24.000000
  0.909091 -0.545455 -0.000000     24.000000

 SYSTEM =  diamond Si
 POSCAR =  cubic diamond Si

 Startparameter for this run:
   NWRITE =      2    write-flag & timer
   PREC   = normal    normal or accurate (medium, high low for compatibility)
   ISTART =      0    job   : 0-new  1-cont  2-samecut
   ICHARG =      2    charge: 1-file 2-atom 10-const
   ISPIN  =      1    spin polarized calculation?
   LNONCOLLINEAR =      F non collinear calculations
   LSORBIT =      F    spin-orbit coupling
   INIWAV =      1    electr: 0-lowe 1-rand  2-diag
   LASPH  =      F    aspherical Exc in radial PAW
 Electronic Relaxation 1
   ENCUT  =  240.0 eV  17.64 Ry    4.20 a.u.   4.91  4.91  4.91*2*pi/ulx,y,z
   ENINI  =  240.0     initial cutoff
   ENAUG  =  322.1 eV  augmentation charge cutoff
   NELM   =     60;   NELMIN=  2; NELMDL= -5     # of ELM steps
   EDIFF  = 0.1E-03   stopping-criterion for ELM
   LREAL  =      F    real-space projection
   NLSPLINE    = F    spline interpolate recip. space projectors
   LCOMPAT=      F    compatible to vasp.4.4
   GGA_COMPAT  = T    GGA compatible to vasp.4.4-vasp.4.6
   LMAXPAW     = -100 max onsite density
   LMAXMIX     =    2 max onsite mixed and CHGCAR
   VOSKOWN=      0    Vosko Wilk Nusair interpolation
   ROPT   =    0.00000
 Ionic relaxation
   EDIFFG = 0.1E-02   stopping-criterion for IOM
   NSW    =      0    number of steps for IOM
   NBLOCK =      1;   KBLOCK =      1    inner block; outer block
   IBRION =     -1    ionic relax: 0-MD 1-quasi-New 2-CG
   NFREE  =      0    steps in history (QN), initial steepest desc. (CG)
   ISIF   =      2    stress and relaxation
   IWAVPR =     10    prediction:  0-non 1-charg 2-wave 3-comb
   ISYM   =      2    0-nonsym 1-usesym 2-fastsym
   LCORR  =      T    Harris-Foulkes like correction to forces

   POTIM  = 0.5000    time-step for ionic-motion
   TEIN   =    0.0    initial temperature
   TEBEG  =    0.0;   TEEND  =   0.0 temperature during run
   SMASS  =  -3.00    Nose mass-parameter (am)
   estimated Nose-frequenzy (Omega)   =  0.10E-29 period in steps = 0.13E+47 mass=  -0.346E-27a.u.
[...]
  -0.00000000  0.00000000  0.36363636       0.005
  -0.09090909  0.09090909  0.45454545       0.018
  -0.18181818  0.18181818  0.54545455       0.018
  -0.27272727  0.27272727  0.63636364       0.018
   0.63636364 -0.63636364 -0.27272727       0.018
   0.54545455 -0.54545455 -0.18181818       0.018
   0.45454545 -0.45454545 -0.09090909       0.018
   0.36363636 -0.36363636 -0.00000000       0.009
  -0.00000000 -0.00000000  0.54545455       0.005
  -0.09090909  0.09090909  0.63636364       0.018
  -0.18181818  0.18181818  0.72727273       0.018
   0.72727273 -0.72727273 -0.18181818       0.018
   0.63636364 -0.63636364 -0.09090909       0.018
   0.54545455 -0.54545455 -0.00000000       0.009
  -0.00000000  0.00000000  0.72727273       0.005
  -0.09090909  0.09090909  0.81818182       0.018
   0.81818182 -0.81818182 -0.09090909       0.018
   0.72727273 -0.72727273 -0.00000000       0.009
  -0.00000000  0.00000000  0.90909091       0.005
   0.90909091 -0.90909091 -0.00000000       0.009
   0.00000000  0.18181818  0.36363636       0.018
  -0.09090909  0.27272727  0.45454545       0.036
  -0.18181818  0.36363636  0.54545455       0.036
   0.72727273 -0.54545455 -0.36363636       0.036
   0.00000000  0.18181818  0.54545455       0.018
  -0.09090909  0.27272727  0.63636364       0.036
   0.81818182 -0.63636364 -0.27272727       0.036
   0.72727273 -0.54545455 -0.18181818       0.036
   0.63636364 -0.45454545 -0.09090909       0.036
   0.54545455 -0.36363636  0.00000000       0.018
   0.00000000  0.18181818  0.72727273       0.018
   0.90909091 -0.72727273 -0.18181818       0.036
   0.81818182 -0.63636364 -0.09090909       0.036
   0.72727273 -0.54545455 -0.00000000       0.018
   1.00000000 -0.81818182 -0.09090909       0.018
   0.90909091 -0.72727273 -0.00000000       0.018
   1.00000000 -0.63636364 -0.27272727       0.018
   0.90909091 -0.54545455 -0.18181818       0.036
   1.00000000 -0.63636364 -0.09090909       0.018
   0.90909091 -0.54545455 -0.00000000       0.018

 k-points in reciprocal lattice and weights: k-points
   0.00000000  0.00000000  0.00000000       0.001
   0.09090909  0.00000000  0.00000000       0.006
   0.18181818 -0.00000000  0.00000000       0.006
   0.27272727  0.00000000 -0.00000000       0.006
   0.36363636 -0.00000000  0.00000000       0.006
   0.45454545  0.00000000 -0.00000000       0.006
   0.09090909  0.09090909 -0.00000000       0.005
   0.18181818  0.09090909  0.00000000       0.018
   0.27272727  0.09090909  0.00000000       0.018
   0.36363636  0.09090909 -0.00000000       0.018
   0.45454545  0.09090909  0.00000000       0.018
  -0.45454545  0.09090909  0.00000000       0.018
  -0.36363636  0.09090909 -0.00000000       0.018
  -0.27272727  0.09090909 -0.00000000       0.018
  -0.18181818  0.09090909  0.00000000       0.018
  -0.09090909  0.09090909 -0.00000000       0.009
   0.18181818  0.18181818 -0.00000000       0.005
   0.27272727  0.18181818  0.00000000       0.018
   0.36363636  0.18181818  0.00000000       0.018
   0.45454545  0.18181818  0.00000000       0.018
  -0.45454545  0.18181818  0.00000000       0.018
  -0.36363636  0.18181818  0.00000000       0.018
  -0.27272727  0.18181818  0.00000000       0.018
  -0.18181818  0.18181818 -0.00000000       0.009
   0.27272727  0.27272727 -0.00000000       0.005
   0.36363636  0.27272727  0.00000000       0.018
   0.45454545  0.27272727 -0.00000000       0.018
  -0.45454545  0.27272727  0.00000000       0.018
  -0.36363636  0.27272727  0.00000000       0.018
  -0.27272727  0.27272727  0.00000000       0.009
   0.36363636  0.36363636 -0.00000000       0.005
   0.45454545  0.36363636 -0.00000000       0.018
  -0.45454545  0.36363636 -0.00000000       0.018
  -0.36363636  0.36363636 -0.00000000       0.009
   0.45454545  0.45454545 -0.00000000       0.005
  -0.45454545  0.45454545  0.00000000       0.009
   0.27272727  0.18181818  0.09090909       0.018
   0.36363636  0.18181818  0.09090909       0.036
   0.45454545  0.18181818  0.09090909       0.036
  -0.45454545  0.18181818  0.09090909       0.036
   0.36363636  0.27272727  0.09090909       0.018
   0.45454545  0.27272727  0.09090909       0.036
  -0.45454545  0.27272727  0.09090909       0.036
  -0.36363636  0.27272727  0.09090909       0.036
  -0.27272727  0.27272727  0.09090909       0.036
  -0.18181818  0.27272727  0.09090909       0.018
   0.45454545  0.36363636  0.09090909       0.018
  -0.45454545  0.36363636  0.09090909       0.036
  -0.36363636  0.36363636  0.09090909       0.036
  -0.27272727  0.36363636  0.09090909       0.018
  -0.45454545  0.45454545  0.09090909       0.018
  -0.36363636  0.45454545  0.09090909       0.018
  -0.45454545  0.36363636  0.18181818       0.018
  -0.36363636  0.36363636  0.18181818       0.036
  -0.36363636  0.45454545  0.18181818       0.018
  -0.27272727  0.45454545  0.18181818       0.018

 position of ions in fractional coordinates (direct lattice)
   0.87500000  0.87500000  0.87500000
   0.12500000  0.12500000  0.12500000

 position of ions in cartesian coordinates  (Angst):
   4.81250000  4.81250000  4.81250000
   0.68750000  0.68750000  0.68750000

 k-point   1 :   0.0000 0.0000 0.0000  plane waves:     339
 k-point   2 :   0.0909 0.0000 0.0000  plane waves:     335
 k-point   3 :   0.1818-0.0000 0.0000  plane waves:     344
 k-point   4 :   0.2727 0.0000-0.0000  plane waves:     350
 k-point   5 :   0.3636-0.0000 0.0000  plane waves:     353
 k-point   6 :   0.4545 0.0000-0.0000  plane waves:     356
 k-point   7 :   0.0909 0.0909-0.0000  plane waves:     335
 k-point   8 :   0.1818 0.0909 0.0000  plane waves:     345
 k-point   9 :   0.2727 0.0909 0.0000  plane waves:     343
 k-point  10 :   0.3636 0.0909-0.0000  plane waves:     349
 k-point  11 :   0.4545 0.0909 0.0000  plane waves:     347
 k-point  12 :  -0.4545 0.0909 0.0000  plane waves:     353
 k-point  13 :  -0.3636 0.0909-0.0000  plane waves:     352
 k-point  14 :  -0.2727 0.0909-0.0000  plane waves:     348
 k-point  15 :  -0.1818 0.0909 0.0000  plane waves:     351
 k-point  16 :  -0.0909 0.0909-0.0000  plane waves:     343
 k-point  17 :   0.1818 0.1818-0.0000  plane waves:     347
 k-point  18 :   0.2727 0.1818 0.0000  plane waves:     348
 k-point  19 :   0.3636 0.1818 0.0000  plane waves:     349
 k-point  20 :   0.4545 0.1818 0.0000  plane waves:     348
 k-point  21 :  -0.4545 0.1818 0.0000  plane waves:     360
 k-point  22 :  -0.3636 0.1818 0.0000  plane waves:     354
 k-point  23 :  -0.2727 0.1818 0.0000  plane waves:     351
 k-point  24 :  -0.1818 0.1818-0.0000  plane waves:     349
 k-point  25 :   0.2727 0.2727-0.0000  plane waves:     347
 k-point  26 :   0.3636 0.2727 0.0000  plane waves:     341
 k-point  27 :   0.4545 0.2727-0.0000  plane waves:     346
 k-point  28 :  -0.4545 0.2727 0.0000  plane waves:     359
 k-point  29 :  -0.3636 0.2727 0.0000  plane waves:     358
 k-point  30 :  -0.2727 0.2727 0.0000  plane waves:     351
 k-point  31 :   0.3636 0.3636-0.0000  plane waves:     351
 k-point  32 :   0.4545 0.3636-0.0000  plane waves:     348
 k-point  33 :  -0.4545 0.3636-0.0000  plane waves:     358
 k-point  34 :  -0.3636 0.3636-0.0000  plane waves:     351
 k-point  35 :   0.4545 0.4545-0.0000  plane waves:     343
 k-point  36 :  -0.4545 0.4545 0.0000  plane waves:     347
 k-point  37 :   0.2727 0.1818 0.0909  plane waves:     349
 k-point  38 :   0.3636 0.1818 0.0909  plane waves:     343
 k-point  39 :   0.4545 0.1818 0.0909  plane waves:     348
 k-point  40 :  -0.4545 0.1818 0.0909  plane waves:     354
 k-point  41 :   0.3636 0.2727 0.0909  plane waves:     346
 k-point  42 :   0.4545 0.2727 0.0909  plane waves:     345
 k-point  43 :  -0.4545 0.2727 0.0909  plane waves:     355
 k-point  44 :  -0.3636 0.2727 0.0909  plane waves:     359
 k-point  45 :  -0.2727 0.2727 0.0909  plane waves:     355
 k-point  46 :  -0.1818 0.2727 0.0909  plane waves:     350
 k-point  47 :   0.4545 0.3636 0.0909  plane waves:     342
 k-point  48 :  -0.4545 0.3636 0.0909  plane waves:     349
 k-point  49 :  -0.3636 0.3636 0.0909  plane waves:     356
 k-point  50 :  -0.2727 0.3636 0.0909  plane waves:     355
 k-point  51 :  -0.4545 0.4545 0.0909  plane waves:     357
 k-point  52 :  -0.3636 0.4545 0.0909  plane waves:     357
 k-point  53 :  -0.4545 0.3636 0.1818  plane waves:     349
 k-point  54 :  -0.3636 0.3636 0.1818  plane waves:     359
 k-point  55 :  -0.3636 0.4545 0.1818  plane waves:     355
 k-point  56 :  -0.2727 0.4545 0.1818  plane waves:     355

 maximum and minimum number of plane-waves per node :       360      335

 maximum number of plane-waves:       360
 maximum index in each direction:
   IXMAX=    5   IYMAX=    4   IZMAX=    4
   IXMIN=   -5   IYMIN=   -5   IZMIN=   -5

 serial   3D FFT for wavefunctions
 parallel 3D FFT for charge:
    minimum data exchange during FFTs selected (reduces bandwidth)

 Broyden mixing: mesh for mixing (old mesh)
   NGX =  9   NGY =  9   NGZ =  9
  (NGX  = 32   NGY  = 32   NGZ  = 32)
  gives a total of    729 points

 initial charge density was supplied:
 charge density of overlapping atoms calculated
 number of electron       8.0000000 magnetization
 keeping initial charge density in first step

 Maximum index for augmentation-charges          805 (set IRDMAX)

 First call to EWALD:  gamma=   0.512
 Maximum number of real-space cells 3x 3x 3
 Maximum number of reciprocal cells 3x 3x 3

--------------------------------------- Iteration      1(   1)  ---------------------------------------

 BZINTS: Fermi energy:    7.990268;    8.000000 electrons
         Band energy: 0.958766E+01;  BLOECHL correction:   -0.070296

 eigenvalue-minimisations  :   904
 total energy-change (2. order) :-0.1857951E+01  (-0.2004046E+03)
 number of electron       8.0000000 magnetization
 augmentation part        8.0000000 magnetization

 Free energy of the ion-electron system (eV)
  alpha Z        PSCENC =         3.23732588
  Ewald energy   TEWEN  =      -225.65453461
  -Hartree energ DENC   =       -11.58535014
  -exchange      EXHF   =         0.00000000
  -V(xc)+E(xc)   XCENC  =       -18.75116554
  PAW double counting   =       176.24759923     -141.06103558
  entropy T*S    EENTRO =         0.00000000
  eigenvalues    EBANDS =         9.58765681
  atomic energy  EATOM  =       206.12155316
  Solvation  Ediel_sol  =         0.00000000
  free energy    TOTEN  =        -1.85795080 eV

  energy without entropy =       -1.85795080  energy(sigma->0) =       -1.85795080

[...]

 Broyden mixing:
  rms(total) = 0.51883E+00    rms(broyden)= 0.51881E+00
  rms(prec ) = 0.93796E+00
  weight for this iteration     100.00

[...]

 eigenvalue-minimisations  :  1064
 total energy-change (2. order) : 0.1084023E+00  (-0.6916358E-02)
 number of electron       8.0000001 magnetization
 augmentation part       -0.4619293 magnetization

[...]

 eigenvalues of (default mixing * dielectric matrix)
  average eigenvalue GAMMA=   2.5646
  2.5646

[...]

 eigenvalue-minimisations  :  1120
 total energy-change (2. order) : 0.5053987E-01  (-0.1357494E-01)
 number of electron       8.0000001 magnetization
 augmentation part       -0.4555347 magnetization

[...]

 Broyden mixing:
  rms(total) = 0.55699E-02    rms(broyden)= 0.55699E-02
  rms(prec ) = 0.63768E-02
  weight for this iteration     100.00

 eigenvalues of (default mixing * dielectric matrix)
  average eigenvalue GAMMA=   2.1024
  0.9467  2.5686  2.5686  2.3258

[...]

--------------------------------------- Iteration      1(  10)  ---------------------------------------

[...]

 eigenvalue-minimisations  :   560
 total energy-change (2. order) :-0.2317908E-04  (-0.2574252E-05)
 number of electron       8.0000001 magnetization
 augmentation part       -0.4565582 magnetization

 Free energy of the ion-electron system (eV)
  alpha Z        PSCENC =         3.23732588
  Ewald energy   TEWEN  =      -225.65453461
  -Hartree energ DENC   =       -15.36738772
  -exchange      EXHF   =         0.00000000
  -V(xc)+E(xc)   XCENC  =       -18.12795946
  PAW double counting   =       964.60986453     -929.62218162
  entropy T*S    EENTRO =         0.00000000
  eigenvalues    EBANDS =         3.98023523
  atomic energy  EATOM  =       206.12155316
  Solvation  Ediel_sol  =         0.00000000
  free energy    TOTEN  =       -10.82308462 eV

  energy without entropy =      -10.82308462  energy(sigma->0) =      -10.82308462

 average (electrostatic) potential at core
  the test charge radii are     0.9892
  (the norm of the test charge is              1.0000)
       1 -83.6740       2 -83.6740

 E-fermi :   5.4598     XC(G=0):  -9.2621     alpha+bet :-11.5327

 Fermi energy:         5.4597861276

 k-point     1 :       0.0000    0.0000    0.0000
  band No.  band energies     occupation
      1      -6.2527      2.00000
      2       5.4595      2.00000
      3       5.4595      2.00000
      4       5.4595      2.00000
      5       8.0113      0.00000
      6       8.0113      0.00000
      7       8.0113      0.00000
      8       8.3878      0.00000

[...]

 k-point    56 :      -0.2727    0.4545    0.1818
  band No.  band energies     occupation
      1      -2.4689      2.00000
      2      -1.7482      2.00000
      3       1.4969      2.00000
      4       2.1691      2.00000
      5       8.7988      0.00000
      6      10.0828      0.00000
      7      10.7206      0.00000
      8      10.7515      0.00000

 soft charge-density along one line, spin component           1
         0         1         2         3         4         5         6         7         8         9
 total charge-density along one line

------------------------ aborting loop because EDIFF is reached ----------------------------------------

 total charge

# of ion       s       p       d       tot
    1        0.755   0.930   0.000   1.685
    2        0.755   0.930   0.000   1.685
tot          1.511   1.860   0.000   3.371

  FORCE on cell =-STRESS in cart. coord.  units (eV):
  Direction    XX          YY          ZZ          XY          YZ          ZX
  Alpha Z     3.23733     3.23733     3.23733
  Ewald     -75.21821   -75.21821   -75.21821     0.00000     0.00000    -0.00000
  Hartree     5.12249     5.12249     5.12249    -0.00000    -0.00000    -0.00000
  E(xc)     -25.16989   -25.16989   -25.16989     0.00001     0.00001     0.00001
  Local     -29.89028   -29.89028   -29.89028     0.00005     0.00005     0.00005
  n-local    78.30798    79.68429    73.96829     2.16970    -1.26118     0.52921
  augment   -11.60580   -11.60580   -11.60580    -0.00005    -0.00005    -0.00005
  Kinetic    57.93196    55.49339    53.90943     3.56876    -0.70517     1.03096
  Fock        0.00000     0.00000     0.00000     0.00000     0.00000     0.00000
  Total      -0.42592    -0.42592    -0.42592    -0.00000    -0.00000     0.00000
  in kB     -16.40624   -16.40624   -16.40624    -0.00000    -0.00000     0.00000

 VOLUME and BASIS-vectors are now :
  energy-cutoff  :      240.00
  volume of cell :       41.59
      direct lattice vectors                 reciprocal lattice vectors
     0.000000000  2.750000000  2.750000000    -0.181818182  0.181818182  0.181818182
     2.750000000  0.000000000  2.750000000     0.181818182 -0.181818182  0.181818182
     2.750000000  2.750000000  0.000000000     0.181818182  0.181818182 -0.181818182

  length of vectors
     3.889087297  3.889087297  3.889087297     0.314918329  0.314918329  0.314918329

 FORCES acting on ions
    electron-ion (+dipol)            ewald-force                    non-local-force                 convergence-correction
   0.422E-05 0.422E-05 0.432E-05   -.386E-15 0.509E-15 0.564E-15   0.248E-15 0.154E-15 0.179E-15   0.570E-06 0.570E-06 0.570E-06
   -.422E-05 -.422E-05 -.432E-05   0.608E-15 -.112E-14 -.912E-15   -.268E-15 -.175E-15 -.236E-15   -.570E-06 -.570E-06 -.570E-06
   -.131E-12 -.331E-13 0.302E-13   0.223E-15 -.610E-15 -.348E-15   -.204E-16 -.204E-16 -.577E-16   -.643E-15 -.310E-15 -.646E-15

 POSITION                                       TOTAL-FORCE (eV/Angst)
      4.81250      4.81250      4.81250        -0.000000     -0.000000     -0.000000
      0.68750      0.68750      0.68750         0.000000      0.000000      0.000000
    total drift:                               -0.000000     -0.000000      0.000000

  FREE ENERGIE OF THE ION-ELECTRON SYSTEM (eV)
  free  energy   TOTEN  =       -10.82308462 eV

  energy  without entropy=      -10.82308462  energy(sigma->0) =      -10.82308462

 writing wavefunctions

 total charge

# of ion       s       p       d       tot
    1        0.755   0.930   0.000   1.685
    2        0.755   0.930   0.000   1.685
tot          1.511   1.860   0.000   3.371

 BZINTS: Fermi energy:    5.459786;    8.000000 electrons
         Band energy: 0.398024E+01;  BLOECHL correction:    0.000000