 vasp.6.3.0 20Jan22 (build Feb 01 2022 16:52:37) complex

 executed on           TETRA_NSC1 date 2022.02.22  16:07:13

 INCAR:
   SYSTEM = fcc Si
   ISTART = 0
   ICHARG = 2
   ENCUT = 240
   ISMEAR = 0
   SIGMA = 0.1

 POTCAR:    PAW_PBE Si 05Jan2001
 POTCAR:    PAW_PBE Si 05Jan2001
   VRHFIN =Si: s2p2

   TITEL  = PAW_PBE Si 05Jan2001
   POMASS =   28.085; ZVAL   =    4.000    mass and valenz
   ENMAX  =  245.345; ENMIN  =  184.009 eV

  PAW_PBE Si 05Jan2001                  :

 POSCAR: fcc:
  positions in cartesian coordinates
 exchange correlation table for  LEXCH =        8
   RHO(1)=    0.500       N(1)  =     2000
   RHO(2)=  100.500       N(2)  =     4000

 ion  position               nearest neighbor table
   1  0.000  0.000  0.000-

  LATTYP: Found a face centered cubic cell.
 ALAT       =     3.7000000000

  Lattice vectors:

 A1 = (   1.8500000000,   1.8500000000,   0.0000000000)
 A2 = (   0.0000000000,   1.8500000000,   1.8500000000)
 A3 = (   1.8500000000,   0.0000000000,   1.8500000000)

Analysis of symmetry for initial positions (statically):
 Subroutine PRICEL returns:
 Original cell was already a primitive cell.

 Routine SETGRP: Setting up the symmetry group for a
 face centered cubic supercell.

 Subroutine GETGRP returns: Found 48 space group operations
 (whereof 48 operations were pure point group operations)
 out of a pool of 48 trial point group operations.

The static configuration has the point symmetry O_h .

Analysis of symmetry for dynamics (positions and initial velocities):
 Subroutine PRICEL returns:
 Original cell was already a primitive cell.

 Routine SETGRP: Setting up the symmetry group for a
 face centered cubic supercell.

 Subroutine GETGRP returns: Found 48 space group operations
 (whereof 48 operations were pure point group operations)
 out of a pool of 48 trial point group operations.

The dynamic configuration has the point symmetry O_h .

 Subroutine INISYM returns: Found 48 space group operations
 (whereof 48 operations are pure point group operations),
 and found     1 'primitive' translations

                                     Primitive cell

  volume of cell :      12.6633

  direct lattice vectors                    reciprocal lattice vectors
     1.850000000  1.850000000  0.000000000     0.270270270  0.270270270 -0.270270270
     0.000000000  1.850000000  1.850000000    -0.270270270  0.270270270  0.270270270
     1.850000000  0.000000000  1.850000000     0.270270270 -0.270270270  0.270270270

  length of vectors
     2.616295090  2.616295090  2.616295090     0.468121840  0.468121840  0.468121840

  position of ions in fractional coordinates (direct lattice)
     0.000000000  0.000000000  0.000000000

  ion indices of the primitive-cell ions
   primitive index   ion index
                 1           1

 KPOINTS: k-points

Automatic generation of k-mesh.
 Grid dimensions read from file:
 generate k-points for:   11   11   11

 Generating k-lattice:

  Cartesian coordinates                     Fractional coordinates (reciprocal lattice)
     0.024570025  0.024570025 -0.024570025     0.090909091  0.000000000  0.000000000
    -0.024570025  0.024570025  0.024570025     0.000000000  0.090909091 -0.000000000
     0.024570025 -0.024570025  0.024570025    -0.000000000 -0.000000000  0.090909091

  Length of vectors
     0.042556531  0.042556531  0.042556531

  Shift w.r.t. Gamma in fractional coordinates (k-lattice)
     0.000000000  0.000000000  0.000000000

 Subroutine IBZKPT returns following result:

 Found     56 irreducible k-points:

 Following reciprocal coordinates:
            Coordinates               Weight
  0.000000  0.000000  0.000000      1.000000
  0.090909  0.000000  0.000000      8.000000
  0.181818  0.000000  0.000000      8.000000
  0.272727  0.000000  0.000000      8.000000
  0.363636 -0.000000 -0.000000      8.000000
  0.454545 -0.000000  0.000000      8.000000
  0.090909  0.090909 -0.000000      6.000000
  0.181818  0.090909  0.000000     24.000000
  0.272727  0.090909  0.000000     24.000000
  0.363636  0.090909  0.000000     24.000000
  0.454545  0.090909  0.000000     24.000000
 -0.454545  0.090909 -0.000000     24.000000
 -0.363636  0.090909  0.000000     24.000000
 -0.272727  0.090909  0.000000     24.000000
 -0.181818  0.090909 -0.000000     24.000000
 -0.090909  0.090909 -0.000000     12.000000
  0.181818  0.181818 -0.000000      6.000000
  0.272727  0.181818  0.000000     24.000000
  0.363636  0.181818  0.000000     24.000000
  0.454545  0.181818  0.000000     24.000000
 -0.454545  0.181818  0.000000     24.000000
 -0.363636  0.181818 -0.000000     24.000000
 -0.272727  0.181818 -0.000000     24.000000
 -0.181818  0.181818 -0.000000     12.000000
  0.272727  0.272727  0.000000      6.000000
  0.363636  0.272727  0.000000     24.000000
  0.454545  0.272727  0.000000     24.000000
 -0.454545  0.272727  0.000000     24.000000
 -0.363636  0.272727  0.000000     24.000000
 -0.272727  0.272727 -0.000000     12.000000
  0.363636  0.363636  0.000000      6.000000
  0.454545  0.363636  0.000000     24.000000
 -0.454545  0.363636  0.000000     24.000000
 -0.363636  0.363636  0.000000     12.000000
  0.454545  0.454545  0.000000      6.000000
 -0.454545  0.454545 -0.000000     12.000000
  0.272727  0.181818  0.090909     24.000000
  0.363636  0.181818  0.090909     48.000000
  0.454545  0.181818  0.090909     48.000000
 -0.454545  0.181818  0.090909     48.000000
  0.363636  0.272727  0.090909     24.000000
  0.454545  0.272727  0.090909     48.000000
 -0.454545  0.272727  0.090909     48.000000
 -0.363636  0.272727  0.090909     48.000000
 -0.272727  0.272727  0.090909     48.000000
 -0.181818  0.272727  0.090909     24.000000
  0.454545  0.363636  0.090909     24.000000
 -0.454545  0.363636  0.090909     48.000000
 -0.363636  0.363636  0.090909     48.000000
 -0.272727  0.363636  0.090909     24.000000
 -0.454545  0.454545  0.090909     24.000000
 -0.363636  0.454545  0.090909     24.000000
 -0.454545  0.363636  0.181818     24.000000
 -0.363636  0.363636  0.181818     48.000000
 -0.363636  0.454545  0.181818     24.000000
 -0.272727  0.454545  0.181818     24.000000

 Following cartesian coordinates:
            Coordinates               Weight
  0.000000  0.000000  0.000000      1.000000
  0.090909  0.090909 -0.090909      8.000000
  0.181818  0.181818 -0.181818      8.000000
  0.272727  0.272727 -0.272727      8.000000
  0.363636  0.363636 -0.363636      8.000000
  0.454545  0.454545 -0.454545      8.000000
  0.000000  0.181818 -0.000000      6.000000
  0.090909  0.272727 -0.090909     24.000000
  0.181818  0.363636 -0.181818     24.000000
  0.272727  0.454545 -0.272727     24.000000
  0.363636  0.545455 -0.363636     24.000000
 -0.545455 -0.363636  0.545455     24.000000
 -0.454545 -0.272727  0.454545     24.000000
 -0.363636 -0.181818  0.363636     24.000000
 -0.272727 -0.090909  0.272727     24.000000
 -0.181818  0.000000  0.181818     12.000000
  0.000000  0.363636 -0.000000      6.000000
  0.090909  0.454545 -0.090909     24.000000
  0.181818  0.545455 -0.181818     24.000000
  0.272727  0.636364 -0.272727     24.000000
 -0.636364 -0.272727  0.636364     24.000000
 -0.545455 -0.181818  0.545455     24.000000
 -0.454545 -0.090909  0.454545     24.000000
 -0.363636  0.000000  0.363636     12.000000
  0.000000  0.545455  0.000000      6.000000
  0.090909  0.636364 -0.090909     24.000000
  0.181818  0.727273 -0.181818     24.000000
 -0.727273 -0.181818  0.727273     24.000000
 -0.636364 -0.090909  0.636364     24.000000
 -0.545455  0.000000  0.545455     12.000000
  0.000000  0.727273  0.000000      6.000000
  0.090909  0.818182 -0.090909     24.000000
 -0.818182 -0.090909  0.818182     24.000000
 -0.727273  0.000000  0.727273     12.000000
  0.000000  0.909091 -0.000000      6.000000
 -0.909091  0.000000  0.909091     12.000000
  0.181818  0.363636  0.000000     24.000000
  0.272727  0.454545 -0.090909     48.000000
  0.363636  0.545455 -0.181818     48.000000
 -0.545455 -0.363636  0.727273     48.000000
  0.181818  0.545455  0.000000     24.000000
  0.272727  0.636364 -0.090909     48.000000
 -0.636364 -0.272727  0.818182     48.000000
 -0.545455 -0.181818  0.727273     48.000000
 -0.454545 -0.090909  0.636364     48.000000
 -0.363636  0.000000  0.545455     24.000000
  0.181818  0.727273  0.000000     24.000000
 -0.727273 -0.181818  0.909091     48.000000
 -0.636364 -0.090909  0.818182     48.000000
 -0.545455 -0.000000  0.727273     24.000000
 -0.818182 -0.090909  1.000000     24.000000
 -0.727273 -0.000000  0.909091     24.000000
 -0.636364 -0.272727  1.000000     24.000000
 -0.545455 -0.181818  0.909091     48.000000
 -0.636364 -0.090909  1.000000     24.000000
 -0.545455 -0.000000  0.909091     24.000000

 SYSTEM =  fcc Si
 POSCAR =  fcc:

 Startparameter for this run:
   NWRITE =      2    write-flag & timer
   PREC   = normal    normal or accurate (medium, high low for compatibility)
   ISTART =      0    job   : 0-new  1-cont  2-samecut
   ICHARG =      2    charge: 1-file 2-atom 10-const
   ISPIN  =      1    spin polarized calculation?
   LNONCOLLINEAR =      F non collinear calculations
   LSORBIT =      F    spin-orbit coupling
   INIWAV =      1    electr: 0-lowe 1-rand  2-diag
   LASPH  =      F    aspherical Exc in radial PAW
 Electronic Relaxation 1
   ENCUT  =  240.0 eV  17.64 Ry    4.20 a.u.   3.30  3.30  3.30*2*pi/ulx,y,z
   ENINI  =  240.0     initial cutoff
   ENAUG  =  322.1 eV  augmentation charge cutoff
   NELM   =     60;   NELMIN=  2; NELMDL= -5     # of ELM steps
   EDIFF  = 0.1E-03   stopping-criterion for ELM
   LREAL  =      F    real-space projection
   NLSPLINE    = F    spline interpolate recip. space projectors
   LCOMPAT=      F    compatible to vasp.4.4
   GGA_COMPAT  = T    GGA compatible to vasp.4.4-vasp.4.6
   LMAXPAW     = -100 max onsite density
   LMAXMIX     =    2 max onsite mixed and CHGCAR
   VOSKOWN=      0    Vosko Wilk Nusair interpolation
   ROPT   =    0.00000
 Ionic relaxation
   EDIFFG = 0.1E-02   stopping-criterion for IOM
   NSW    =      0    number of steps for IOM
   NBLOCK =      1;   KBLOCK =      1    inner block; outer block
   IBRION =     -1    ionic relax: 0-MD 1-quasi-New 2-CG
   NFREE  =      0    steps in history (QN), initial steepest desc. (CG)
   ISIF   =      2    stress and relaxation
   IWAVPR =     10    prediction:  0-non 1-charg 2-wave 3-comb
   ISYM   =      2    0-nonsym 1-usesym 2-fastsym
   LCORR  =      T    Harris-Foulkes like correction to forces

   POTIM  = 0.5000    time-step for ionic-motion
   TEIN   =    0.0    initial temperature
   TEBEG  =    0.0;   TEEND  =   0.0 temperature during run
   SMASS  =  -3.00    Nose mass-parameter (am)
   estimated Nose-frequenzy (Omega)   =  0.10E-29 period in steps = 0.13E+47 mass=  -0.156E-27a.u.
   SCALEE = 1.0000    scale energy and forces
   NPACO  =    256;   APACO  = 10.0  distance and # of slots for P.C.
   PSTRESS=    0.0 pullay stress

  Mass of Ions in am
   POMASS =  28.09
  Ionic Valenz
   ZVAL   =   4.00
  Atomic Wigner-Seitz radii
  virtual crystal weights
   VCA    =   1.00
   NELECT =       4.0000    total number of electrons
[...]
     1.850000000  0.000000000  1.850000000     0.270270270 -0.270270270  0.270270270

[...]

 k-points in units of 2pi/SCALE and weight: k-points
   0.00000000  0.00000000  0.00000000       0.001
   0.09090909  0.09090909 -0.09090909       0.006
   0.18181818  0.18181818 -0.18181818       0.006
   0.27272727  0.27272727 -0.27272727       0.006
   0.36363636  0.36363636 -0.36363636       0.006
   0.45454545  0.45454545 -0.45454545       0.006
   0.00000000  0.18181818 -0.00000000       0.005
   0.09090909  0.27272727 -0.09090909       0.018
   0.18181818  0.36363636 -0.18181818       0.018
   0.27272727  0.45454545 -0.27272727       0.018
   0.36363636  0.54545455 -0.36363636       0.018
  -0.54545455 -0.36363636  0.54545455       0.018
  -0.45454545 -0.27272727  0.45454545       0.018
  -0.36363636 -0.18181818  0.36363636       0.018
  -0.27272727 -0.09090909  0.27272727       0.018
  -0.18181818  0.00000000  0.18181818       0.009
   0.00000000  0.36363636 -0.00000000       0.005
   0.09090909  0.45454545 -0.09090909       0.018
   0.18181818  0.54545455 -0.18181818       0.018
   0.27272727  0.63636364 -0.27272727       0.018
  -0.63636364 -0.27272727  0.63636364       0.018
  -0.54545455 -0.18181818  0.54545455       0.018
  -0.45454545 -0.09090909  0.45454545       0.018
  -0.36363636  0.00000000  0.36363636       0.009
   0.00000000  0.54545455  0.00000000       0.005
   0.09090909  0.63636364 -0.09090909       0.018
   0.18181818  0.72727273 -0.18181818       0.018
  -0.72727273 -0.18181818  0.72727273       0.018
  -0.63636364 -0.09090909  0.63636364       0.018
  -0.54545455  0.00000000  0.54545455       0.009
   0.00000000  0.72727273  0.00000000       0.005
   0.09090909  0.81818182 -0.09090909       0.018
  -0.81818182 -0.09090909  0.81818182       0.018
  -0.72727273  0.00000000  0.72727273       0.009
   0.00000000  0.90909091 -0.00000000       0.005
  -0.90909091  0.00000000  0.90909091       0.009
   0.18181818  0.36363636  0.00000000       0.018
   0.27272727  0.45454545 -0.09090909       0.036
   0.36363636  0.54545455 -0.18181818       0.036
  -0.54545455 -0.36363636  0.72727273       0.036
   0.18181818  0.54545455  0.00000000       0.018
   0.27272727  0.63636364 -0.09090909       0.036
  -0.63636364 -0.27272727  0.81818182       0.036
  -0.54545455 -0.18181818  0.72727273       0.036
  -0.45454545 -0.09090909  0.63636364       0.036
  -0.36363636  0.00000000  0.54545455       0.018
   0.18181818  0.72727273  0.00000000       0.018
  -0.72727273 -0.18181818  0.90909091       0.036
  -0.63636364 -0.09090909  0.81818182       0.036
  -0.54545455 -0.00000000  0.72727273       0.018
  -0.81818182 -0.09090909  1.00000000       0.018
  -0.72727273 -0.00000000  0.90909091       0.018
  -0.63636364 -0.27272727  1.00000000       0.018
  -0.54545455 -0.18181818  0.90909091       0.036
  -0.63636364 -0.09090909  1.00000000       0.018
  -0.54545455 -0.00000000  0.90909091       0.018

 k-points in reciprocal lattice and weights: k-points
   0.00000000  0.00000000  0.00000000       0.001
   0.09090909  0.00000000  0.00000000       0.006
   0.18181818  0.00000000  0.00000000       0.006
   0.27272727  0.00000000  0.00000000       0.006
   0.36363636 -0.00000000 -0.00000000       0.006
   0.45454545 -0.00000000  0.00000000       0.006
   0.09090909  0.09090909 -0.00000000       0.005
   0.18181818  0.09090909  0.00000000       0.018
   0.27272727  0.09090909  0.00000000       0.018
   0.36363636  0.09090909  0.00000000       0.018
   0.45454545  0.09090909  0.00000000       0.018
  -0.45454545  0.09090909 -0.00000000       0.018
  -0.36363636  0.09090909  0.00000000       0.018
  -0.27272727  0.09090909  0.00000000       0.018
  -0.18181818  0.09090909 -0.00000000       0.018
  -0.09090909  0.09090909 -0.00000000       0.009
   0.18181818  0.18181818 -0.00000000       0.005
   0.27272727  0.18181818  0.00000000       0.018
   0.36363636  0.18181818  0.00000000       0.018
   0.45454545  0.18181818  0.00000000       0.018
  -0.45454545  0.18181818  0.00000000       0.018
  -0.36363636  0.18181818 -0.00000000       0.018
  -0.27272727  0.18181818 -0.00000000       0.018
  -0.18181818  0.18181818 -0.00000000       0.009
   0.27272727  0.27272727  0.00000000       0.005
   0.36363636  0.27272727  0.00000000       0.018
   0.45454545  0.27272727  0.00000000       0.018
  -0.45454545  0.27272727  0.00000000       0.018
  -0.36363636  0.27272727  0.00000000       0.018
  -0.27272727  0.27272727 -0.00000000       0.009
   0.36363636  0.36363636  0.00000000       0.005
   0.45454545  0.36363636  0.00000000       0.018
  -0.45454545  0.36363636  0.00000000       0.018
  -0.36363636  0.36363636  0.00000000       0.009
   0.45454545  0.45454545  0.00000000       0.005
  -0.45454545  0.45454545 -0.00000000       0.009
   0.27272727  0.18181818  0.09090909       0.018
   0.36363636  0.18181818  0.09090909       0.036
   0.45454545  0.18181818  0.09090909       0.036
  -0.45454545  0.18181818  0.09090909       0.036
   0.36363636  0.27272727  0.09090909       0.018
   0.45454545  0.27272727  0.09090909       0.036
  -0.45454545  0.27272727  0.09090909       0.036
  -0.36363636  0.27272727  0.09090909       0.036
  -0.27272727  0.27272727  0.09090909       0.036
  -0.18181818  0.27272727  0.09090909       0.018
   0.45454545  0.36363636  0.09090909       0.018
  -0.45454545  0.36363636  0.09090909       0.036
  -0.36363636  0.36363636  0.09090909       0.036
  -0.27272727  0.36363636  0.09090909       0.018
  -0.45454545  0.45454545  0.09090909       0.018
  -0.36363636  0.45454545  0.09090909       0.018
  -0.45454545  0.36363636  0.18181818       0.018
  -0.36363636  0.36363636  0.18181818       0.036
  -0.36363636  0.45454545  0.18181818       0.018
  -0.27272727  0.45454545  0.18181818       0.018

 position of ions in fractional coordinates (direct lattice)
   0.00000000  0.00000000  0.00000000

 position of ions in cartesian coordinates  (Angst):
   0.00000000  0.00000000  0.00000000

 k-point   1 :   0.0000 0.0000 0.0000  plane waves:     113
 k-point   2 :   0.0909 0.0000 0.0000  plane waves:     113
 k-point   3 :   0.1818 0.0000 0.0000  plane waves:     110
 k-point   4 :   0.2727 0.0000 0.0000  plane waves:     104
 k-point   5 :   0.3636-0.0000-0.0000  plane waves:     105
 k-point   6 :   0.4545-0.0000 0.0000  plane waves:     108
 k-point   7 :   0.0909 0.0909-0.0000  plane waves:     113
 k-point   8 :   0.1818 0.0909 0.0000  plane waves:     108
 k-point   9 :   0.2727 0.0909 0.0000  plane waves:     105
 k-point  10 :   0.3636 0.0909 0.0000  plane waves:     109
 k-point  11 :   0.4545 0.0909 0.0000  plane waves:     106
 k-point  12 :  -0.4545 0.0909-0.0000  plane waves:     107
 k-point  13 :  -0.3636 0.0909 0.0000  plane waves:     107
 k-point  14 :  -0.2727 0.0909 0.0000  plane waves:     107
 k-point  15 :  -0.1818 0.0909-0.0000  plane waves:     106
 k-point  16 :  -0.0909 0.0909-0.0000  plane waves:     111
 k-point  17 :   0.1818 0.1818-0.0000  plane waves:     113
 k-point  18 :   0.2727 0.1818 0.0000  plane waves:     109
 k-point  19 :   0.3636 0.1818 0.0000  plane waves:     107
 k-point  20 :   0.4545 0.1818 0.0000  plane waves:     110
 k-point  21 :  -0.4545 0.1818 0.0000  plane waves:     105
 k-point  22 :  -0.3636 0.1818-0.0000  plane waves:     108
 k-point  23 :  -0.2727 0.1818-0.0000  plane waves:     106
 k-point  24 :  -0.1818 0.1818-0.0000  plane waves:     107
 k-point  25 :   0.2727 0.2727 0.0000  plane waves:     105
 k-point  26 :   0.3636 0.2727 0.0000  plane waves:     109
 k-point  27 :   0.4545 0.2727 0.0000  plane waves:     106
 k-point  28 :  -0.4545 0.2727 0.0000  plane waves:     104
 k-point  29 :  -0.3636 0.2727 0.0000  plane waves:     103
 k-point  30 :  -0.2727 0.2727-0.0000  plane waves:     107
 k-point  31 :   0.3636 0.3636 0.0000  plane waves:     112
 k-point  32 :   0.4545 0.3636 0.0000  plane waves:     110
 k-point  33 :  -0.4545 0.3636 0.0000  plane waves:     106
 k-point  34 :  -0.3636 0.3636 0.0000  plane waves:     102
 k-point  35 :   0.4545 0.4545 0.0000  plane waves:     112
 k-point  36 :  -0.4545 0.4545-0.0000  plane waves:     106
 k-point  37 :   0.2727 0.1818 0.0909  plane waves:     110
 k-point  38 :   0.3636 0.1818 0.0909  plane waves:     104
 k-point  39 :   0.4545 0.1818 0.0909  plane waves:     107
 k-point  40 :  -0.4545 0.1818 0.0909  plane waves:     108
 k-point  41 :   0.3636 0.2727 0.0909  plane waves:     110
 k-point  42 :   0.4545 0.2727 0.0909  plane waves:     106
 k-point  43 :  -0.4545 0.2727 0.0909  plane waves:     107
 k-point  44 :  -0.3636 0.2727 0.0909  plane waves:     106
 k-point  45 :  -0.2727 0.2727 0.0909  plane waves:     108
 k-point  46 :  -0.1818 0.2727 0.0909  plane waves:     104
 k-point  47 :   0.4545 0.3636 0.0909  plane waves:     104
 k-point  48 :  -0.4545 0.3636 0.0909  plane waves:     107
 k-point  49 :  -0.3636 0.3636 0.0909  plane waves:     107
 k-point  50 :  -0.2727 0.3636 0.0909  plane waves:     108
 k-point  51 :  -0.4545 0.4545 0.0909  plane waves:     106
 k-point  52 :  -0.3636 0.4545 0.0909  plane waves:     106
 k-point  53 :  -0.4545 0.3636 0.1818  plane waves:     107
 k-point  54 :  -0.3636 0.3636 0.1818  plane waves:     106
 k-point  55 :  -0.3636 0.4545 0.1818  plane waves:     105
 k-point  56 :  -0.2727 0.4545 0.1818  plane waves:     107

 maximum and minimum number of plane-waves per node :       113      102

 maximum number of plane-waves:       113
 maximum index in each direction:
   IXMAX=    3   IYMAX=    3   IZMAX=    3
   IXMIN=   -3   IYMIN=   -3   IZMIN=   -3

 serial   3D FFT for wavefunctions
 parallel 3D FFT for charge:
    minimum data exchange during FFTs selected (reduces bandwidth)

 Broyden mixing: mesh for mixing (old mesh)
   NGX =  7   NGY =  7   NGZ =  7
  (NGX  = 20   NGY  = 20   NGZ  = 20)
  gives a total of    343 points

 initial charge density was supplied:
 charge density of overlapping atoms calculated
 number of electron       4.0000000 magnetization
 keeping initial charge density in first step

 Maximum index for augmentation-charges          667 (set IRDMAX)

 First call to EWALD:  gamma=   0.760
 Maximum number of real-space cells 3x 3x 3
 Maximum number of reciprocal cells 3x 3x 3

--------------------------------------- Iteration      1(   1)  ---------------------------------------

 eigenvalue-minimisations  :  1080
 total energy-change (2. order) :-0.4150458E+01  (-0.1213829E+03)
 number of electron       4.0000000 magnetization
 augmentation part        4.0000000 magnetization

 Free energy of the ion-electron system (eV)
  alpha Z        PSCENC =         2.65833264
  Ewald energy   TEWEN  =      -142.74819037
  -Hartree energ DENC   =        -0.36576913
  -exchange      EXHF   =         0.00000000
  -V(xc)+E(xc)   XCENC  =        -8.43869577
  PAW double counting   =        88.12379961      -70.53051779
  entropy T*S    EENTRO =        -0.00064079
  eigenvalues    EBANDS =        24.09044664
  atomic energy  EATOM  =       103.06077658
  Solvation  Ediel_sol  =         0.00000000
  free energy    TOTEN  =        -4.15045838 eV

  energy without entropy =       -4.14981759  energy(sigma->0) =       -4.15013799

[...]

 eigenvalue-minimisations  :  1480
 total energy-change (2. order) :-0.4331692E-06  (-0.4332890E-06)
 number of electron       4.0000000 magnetization
 augmentation part        4.0000000 magnetization

[...]

 eigenvalue-minimisations  :   856
 total energy-change (2. order) : 0.1952429E-09  (-0.4062965E-10)
 number of electron       3.9999993 magnetization
 augmentation part       -0.2358530 magnetization

 Broyden mixing:
  rms(total) = 0.38396E+00    rms(broyden)= 0.38396E+00
  rms(prec ) = 0.51257E+00
  weight for this iteration     100.00

[...]

 eigenvalues of (default mixing * dielectric matrix)
  average eigenvalue GAMMA=   2.2555
  2.2555

[...]

 Broyden mixing:
  rms(total) = 0.14919E-01    rms(broyden)= 0.14918E-01
  rms(prec ) = 0.20025E-01
  weight for this iteration     100.00

 eigenvalues of (default mixing * dielectric matrix)
  average eigenvalue GAMMA=   2.4388
  2.4388  2.4388

[...]

--------------------------------------- Iteration      1(   8)  ---------------------------------------

 eigenvalue-minimisations  :  1000
 total energy-change (2. order) : 0.5915325E-04  (-0.1995664E-05)
 number of electron       3.9999993 magnetization
 augmentation part       -0.2411886 magnetization

 Free energy of the ion-electron system (eV)
  alpha Z        PSCENC =         2.65833264
  Ewald energy   TEWEN  =      -142.74819037
  -Hartree energ DENC   =        -0.30076094
  -exchange      EXHF   =         0.00000000
  -V(xc)+E(xc)   XCENC  =        -8.33953463
  PAW double counting   =       475.50273459     -457.94746299
  entropy T*S    EENTRO =        -0.00411323
  eigenvalues    EBANDS =        23.32020619
  atomic energy  EATOM  =       103.06077658
  Solvation  Ediel_sol  =         0.00000000
  free energy    TOTEN  =        -4.79801216 eV

  energy without entropy =       -4.79389893  energy(sigma->0) =       -4.79595554

 average (electrostatic) potential at core
  the test charge radii are     0.9892
  (the norm of the test charge is              1.0000)
       1 -78.0291

 E-fermi :  12.0541     XC(G=0): -11.7437     alpha+bet :-18.9402

 Fermi energy:        12.0541004854

 k-point     1 :       0.0000    0.0000    0.0000
  band No.  band energies     occupation
      1      -3.7194      2.00000
      2      24.6312      0.00000
      3      24.6312      0.00000
      4      24.6312      0.00000
      5      24.8873      0.00000
      6      24.8874      0.00000
      7      24.8874      0.00000
      8      30.1654      0.00000

[...]

 k-point    56 :      -0.2727    0.4545    0.1818
  band No.  band energies     occupation
      1       7.8029      2.00000
      2       8.1315      2.00000
      3       9.6140      2.00000
      4      11.7307      2.00000
      5      25.8042      0.00000
      6      28.7982      0.00000
      7      29.6129      0.00000
      8      31.6124      0.00000

 soft charge-density along one line, spin component           1
         0         1         2         3         4         5         6         7         8         9
 total charge-density along one line

------------------------ aborting loop because EDIFF is reached ----------------------------------------

  FORCE on cell =-STRESS in cart. coord.  units (eV):
  Direction    XX          YY          ZZ          XY          YZ          ZX
  Alpha Z     2.65833     2.65833     2.65833
  Ewald     -47.58273   -47.58273   -47.58273    -0.00000    -0.00000     0.00000
  Hartree     0.10038     0.10038     0.10038    -0.00000    -0.00000    -0.00000
  E(xc)     -13.16518   -13.16518   -13.16518    -0.00001    -0.00001    -0.00001
  Local      -3.96734    -3.96735    -3.96734     0.00004     0.00004     0.00004
  n-local    39.38765    36.80484    39.61481    -1.25238     1.02617     1.72263
  augment    -6.13031    -6.13031    -6.13031    -0.00004    -0.00004    -0.00004
  Kinetic    22.37414    42.19761    27.33819    11.55142    -9.54807   -17.21219
  Fock        0.00000     0.00000     0.00000     0.00000     0.00000     0.00000
  Total       1.15222     1.15222     1.15222     0.00000    -0.00000     0.00000
  in kB     145.78125   145.78125   145.78125     0.00000    -0.00000     0.00000

 VOLUME and BASIS-vectors are now :
  energy-cutoff  :      240.00
  volume of cell :       12.66
      direct lattice vectors                 reciprocal lattice vectors
     1.850000000  1.850000000  0.000000000     0.270270270  0.270270270 -0.270270270
     0.000000000  1.850000000  1.850000000    -0.270270270  0.270270270  0.270270270
     1.850000000  0.000000000  1.850000000     0.270270270 -0.270270270  0.270270270

  length of vectors
     2.616295090  2.616295090  2.616295090     0.468121840  0.468121840  0.468121840

 FORCES acting on ions
    electron-ion (+dipol)            ewald-force                    non-local-force                 convergence-correction
   0.218E-15 0.169E-14 0.145E-14   0.130E-15 0.287E-15 -.265E-15   0.457E-23 0.666E-23 0.431E-24   -.560E-17 0.740E-16 -.376E-17
   0.218E-15 0.169E-14 0.145E-14   0.130E-15 0.287E-15 -.265E-15   0.457E-23 0.666E-23 0.431E-24   -.560E-17 0.740E-16 -.376E-17

 POSITION                                       TOTAL-FORCE (eV/Angst)
      0.00000      0.00000      0.00000         0.000000      0.000000     -0.000000
    total drift:                                0.000000      0.000000      0.000000

  FREE ENERGIE OF THE ION-ELECTRON SYSTEM (eV)
  free  energy   TOTEN  =        -4.79801216 eV

  energy  without entropy=       -4.79389893  energy(sigma->0) =       -4.79595554

 writing wavefunctions