 vasp.6.3.0 20Jan22 (build Feb 01 2022 16:52:37) complex

 executed on           TETRA_NSC1 date 2022.02.23  15:27:55

 INCAR:
   SYSTEM = fcc Ni
   ISTART = 0
   ICHARG = 2
   ENCUT = 270
   ISMEAR = -5
   LORBIT = 11
   ISPIN = 2
   MAGMOM = 1

 POTCAR:    PAW_PBE Ni 02Aug2007
 POTCAR:    PAW_PBE Ni 02Aug2007
   VRHFIN =Ni:

   TITEL  = PAW_PBE Ni 02Aug2007
   POMASS =   58.690; ZVAL   =   10.000    mass and valenz
   ENMAX  =  269.532; ENMIN  =  202.149 eV

  PAW_PBE Ni 02Aug2007                  :

 POSCAR: fcc Ni
  positions in cartesian coordinates
  velocities in cartesian coordinates
 exchange correlation table for  LEXCH =        8
   RHO(1)=    0.500       N(1)  =     2000
   RHO(2)=  100.500       N(2)  =     4000

 ion  position               nearest neighbor table
   1  0.000  0.000  0.000-

  LATTYP: Found a face centered cubic cell.
 ALAT       =     3.5300000000

  Lattice vectors:

 A1 = (   1.7650000000,   1.7650000000,   0.0000000000)
 A2 = (   0.0000000000,   1.7650000000,   1.7650000000)
 A3 = (   1.7650000000,   0.0000000000,   1.7650000000)

Analysis of symmetry for initial positions (statically):
 Subroutine PRICEL returns:
 Original cell was already a primitive cell.

 Routine SETGRP: Setting up the symmetry group for a
 face centered cubic supercell.

 Subroutine GETGRP returns: Found 48 space group operations
 (whereof 48 operations were pure point group operations)
 out of a pool of 48 trial point group operations.

The static configuration has the point symmetry O_h .

Analysis of symmetry for dynamics (positions and initial velocities):
 Subroutine PRICEL returns:
 Original cell was already a primitive cell.

[...]

The dynamic configuration has the point symmetry O_h .

Analysis of structural, dynamic, and magnetic symmetry:
 Subroutine PRICEL returns:
 Original cell was already a primitive cell.

 Routine SETGRP: Setting up the symmetry group for a
 face centered cubic supercell.

 Subroutine GETGRP returns: Found 48 space group operations
 (whereof 48 operations were pure point group operations)
 out of a pool of 48 trial point group operations.

The overall configuration has the point symmetry O_h .

 Subroutine INISYM returns: Found 48 space group operations
 (whereof 48 operations are pure point group operations),
 and found     1 'primitive' translations

                                     Primitive cell

  volume of cell :      10.9967

  direct lattice vectors                    reciprocal lattice vectors
     1.765000000  1.765000000  0.000000000     0.283286119  0.283286119 -0.283286119
     0.000000000  1.765000000  1.765000000    -0.283286119  0.283286119  0.283286119
     1.765000000  0.000000000  1.765000000     0.283286119 -0.283286119  0.283286119

  length of vectors
     2.496086938  2.496086938  2.496086938     0.490665951  0.490665951  0.490665951

  position of ions in fractional coordinates (direct lattice)
     0.000000000  0.000000000  0.000000000

  ion indices of the primitive-cell ions
   primitive index   ion index
                 1           1

 KPOINTS: k-points

Automatic generation of k-mesh.
 Grid dimensions read from file:
 generate k-points for:   11   11   11

 Generating k-lattice:

  Cartesian coordinates                     Fractional coordinates (reciprocal lattice)
     0.025753284  0.025753284 -0.025753284     0.090909091  0.000000000  0.000000000
    -0.025753284  0.025753284  0.025753284     0.000000000  0.090909091 -0.000000000
     0.025753284 -0.025753284  0.025753284    -0.000000000 -0.000000000  0.090909091

  Length of vectors
     0.044605996  0.044605996  0.044605996

  Shift w.r.t. Gamma in fractional coordinates (k-lattice)
     0.000000000  0.000000000  0.000000000

 TETIRR: Found    201 inequivalent tetrahedra from     7986

 Subroutine IBZKPT returns following result:

 Found     56 irreducible k-points:

 Following reciprocal coordinates:
            Coordinates               Weight
  0.000000  0.000000  0.000000      1.000000
  0.090909  0.000000  0.000000      8.000000
  0.181818  0.000000  0.000000      8.000000
  0.272727 -0.000000 -0.000000      8.000000
  0.363636  0.000000  0.000000      8.000000
  0.454545 -0.000000  0.000000      8.000000
  0.090909  0.090909  0.000000      6.000000
  0.181818  0.090909  0.000000     24.000000
  0.272727  0.090909 -0.000000     24.000000
  0.363636  0.090909 -0.000000     24.000000
  0.454545  0.090909  0.000000     24.000000
 -0.454545  0.090909 -0.000000     24.000000
 -0.363636  0.090909 -0.000000     24.000000
 -0.272727  0.090909  0.000000     24.000000
 -0.181818  0.090909  0.000000     24.000000
 -0.090909  0.090909 -0.000000     12.000000
  0.181818  0.181818  0.000000      6.000000
  0.272727  0.181818 -0.000000     24.000000
  0.363636  0.181818  0.000000     24.000000
  0.454545  0.181818  0.000000     24.000000
 -0.454545  0.181818 -0.000000     24.000000
 -0.363636  0.181818  0.000000     24.000000
 -0.272727  0.181818  0.000000     24.000000
 -0.181818  0.181818 -0.000000     12.000000
  0.272727  0.272727 -0.000000      6.000000
  0.363636  0.272727  0.000000     24.000000
  0.454545  0.272727  0.000000     24.000000
 -0.454545  0.272727 -0.000000     24.000000
 -0.363636  0.272727  0.000000     24.000000
 -0.272727  0.272727  0.000000     12.000000
  0.363636  0.363636  0.000000      6.000000
  0.454545  0.363636  0.000000     24.000000
 -0.454545  0.363636 -0.000000     24.000000
 -0.363636  0.363636 -0.000000     12.000000
  0.454545  0.454545  0.000000      6.000000
 -0.454545  0.454545  0.000000     12.000000
  0.272727  0.181818  0.090909     24.000000
  0.363636  0.181818  0.090909     48.000000
  0.454545  0.181818  0.090909     48.000000
 -0.454545  0.181818  0.090909     48.000000
  0.363636  0.272727  0.090909     24.000000
  0.454545  0.272727  0.090909     48.000000
 -0.454545  0.272727  0.090909     48.000000
 -0.363636  0.272727  0.090909     48.000000
 -0.272727  0.272727  0.090909     48.000000
 -0.181818  0.272727  0.090909     24.000000
  0.454545  0.363636  0.090909     24.000000
 -0.454545  0.363636  0.090909     48.000000
 -0.363636  0.363636  0.090909     48.000000
 -0.272727  0.363636  0.090909     24.000000
 -0.454545  0.454545  0.090909     24.000000
 -0.363636  0.454545  0.090909     24.000000
 -0.454545  0.363636  0.181818     24.000000
 -0.363636  0.363636  0.181818     48.000000
 -0.363636  0.454545  0.181818     24.000000
 -0.272727  0.454545  0.181818     24.000000

 Following cartesian coordinates:
            Coordinates               Weight
  0.000000  0.000000  0.000000      1.000000
  0.090909  0.090909 -0.090909      8.000000
  0.181818  0.181818 -0.181818      8.000000
  0.272727  0.272727 -0.272727      8.000000
  0.363636  0.363636 -0.363636      8.000000
  0.454545  0.454545 -0.454545      8.000000
  0.000000  0.181818  0.000000      6.000000
  0.090909  0.272727 -0.090909     24.000000
  0.181818  0.363636 -0.181818     24.000000
  0.272727  0.454545 -0.272727     24.000000
  0.363636  0.545455 -0.363636     24.000000
 -0.545455 -0.363636  0.545455     24.000000
 -0.454545 -0.272727  0.454545     24.000000
 -0.363636 -0.181818  0.363636     24.000000
 -0.272727 -0.090909  0.272727     24.000000
 -0.181818  0.000000  0.181818     12.000000
  0.000000  0.363636  0.000000      6.000000
  0.090909  0.454545 -0.090909     24.000000
  0.181818  0.545455 -0.181818     24.000000
  0.272727  0.636364 -0.272727     24.000000
 -0.636364 -0.272727  0.636364     24.000000
 -0.545455 -0.181818  0.545455     24.000000
 -0.454545 -0.090909  0.454545     24.000000
 -0.363636  0.000000  0.363636     12.000000
  0.000000  0.545455 -0.000000      6.000000
  0.090909  0.636364 -0.090909     24.000000
  0.181818  0.727273 -0.181818     24.000000
 -0.727273 -0.181818  0.727273     24.000000
 -0.636364 -0.090909  0.636364     24.000000
 -0.545455 -0.000000  0.545455     12.000000
  0.000000  0.727273  0.000000      6.000000
  0.090909  0.818182 -0.090909     24.000000
 -0.818182 -0.090909  0.818182     24.000000
 -0.727273  0.000000  0.727273     12.000000
 -0.000000  0.909091  0.000000      6.000000
 -0.909091 -0.000000  0.909091     12.000000
  0.181818  0.363636 -0.000000     24.000000
  0.272727  0.454545 -0.090909     48.000000
  0.363636  0.545455 -0.181818     48.000000
 -0.545455 -0.363636  0.727273     48.000000
  0.181818  0.545455  0.000000     24.000000
  0.272727  0.636364 -0.090909     48.000000
 -0.636364 -0.272727  0.818182     48.000000
 -0.545455 -0.181818  0.727273     48.000000
 -0.454545 -0.090909  0.636364     48.000000
 -0.363636 -0.000000  0.545455     24.000000
  0.181818  0.727273  0.000000     24.000000
 -0.727273 -0.181818  0.909091     48.000000
 -0.636364 -0.090909  0.818182     48.000000
 -0.545455  0.000000  0.727273     24.000000
 -0.818182 -0.090909  1.000000     24.000000
 -0.727273 -0.000000  0.909091     24.000000
 -0.636364 -0.272727  1.000000     24.000000
 -0.545455 -0.181818  0.909091     48.000000
 -0.636364 -0.090909  1.000000     24.000000
 -0.545455 -0.000000  0.909091     24.000000

 SYSTEM =  fcc Ni
 POSCAR =  fcc Ni

 Startparameter for this run:
   NWRITE =      2    write-flag & timer
   PREC   = normal    normal or accurate (medium, high low for compatibility)
   ISTART =      0    job   : 0-new  1-cont  2-samecut
   ICHARG =      2    charge: 1-file 2-atom 10-const
   ISPIN  =      2    spin polarized calculation?
   LNONCOLLINEAR =      F non collinear calculations
   LSORBIT =      F    spin-orbit coupling
   INIWAV =      1    electr: 0-lowe 1-rand  2-diag
   LASPH  =      F    aspherical Exc in radial PAW
 Electronic Relaxation 1
   ENCUT  =  270.0 eV  19.84 Ry    4.45 a.u.   3.34  3.34  3.34*2*pi/ulx,y,z
   ENINI  =  270.0     initial cutoff
   ENAUG  =  544.6 eV  augmentation charge cutoff
   NELM   =     60;   NELMIN=  2; NELMDL= -5     # of ELM steps
   EDIFF  = 0.1E-03   stopping-criterion for ELM
   LREAL  =      F    real-space projection
   NLSPLINE    = F    spline interpolate recip. space projectors
   LCOMPAT=      F    compatible to vasp.4.4
   GGA_COMPAT  = T    GGA compatible to vasp.4.4-vasp.4.6
   LMAXPAW     = -100 max onsite density
   LMAXMIX     =    2 max onsite mixed and CHGCAR
   VOSKOWN=      0    Vosko Wilk Nusair interpolation
   ROPT   =    0.00000
 Ionic relaxation
   EDIFFG = 0.1E-02   stopping-criterion for IOM
   NSW    =      0    number of steps for IOM
   NBLOCK =      1;   KBLOCK =      1    inner block; outer block
   IBRION =     -1    ionic relax: 0-MD 1-quasi-New 2-CG
   NFREE  =      0    steps in history (QN), initial steepest desc. (CG)
   ISIF   =      2    stress and relaxation
   IWAVPR =     10    prediction:  0-non 1-charg 2-wave 3-comb
   ISYM   =      2    0-nonsym 1-usesym 2-fastsym
   LCORR  =      T    Harris-Foulkes like correction to forces

   POTIM  = 0.5000    time-step for ionic-motion
   TEIN   =    0.0    initial temperature
   TEBEG  =    0.0;   TEEND  =   0.0 temperature during run
   SMASS  =  -3.00    Nose mass-parameter (am)
   estimated Nose-frequenzy (Omega)   =  0.10E-29 period in steps = 0.13E+47 mass=  -0.142E-27a.u.
   SCALEE = 1.0000    scale energy and forces
[...]
  -0.63636364 -0.09090909  0.81818182       0.036
  -0.54545455  0.00000000  0.72727273       0.018
  -0.81818182 -0.09090909  1.00000000       0.018
  -0.72727273 -0.00000000  0.90909091       0.018
  -0.63636364 -0.27272727  1.00000000       0.018
  -0.54545455 -0.18181818  0.90909091       0.036
  -0.63636364 -0.09090909  1.00000000       0.018
  -0.54545455 -0.00000000  0.90909091       0.018

 k-points in reciprocal lattice and weights: k-points
   0.00000000  0.00000000  0.00000000       0.001
   0.09090909  0.00000000  0.00000000       0.006
   0.18181818  0.00000000  0.00000000       0.006
   0.27272727 -0.00000000 -0.00000000       0.006
   0.36363636  0.00000000  0.00000000       0.006
   0.45454545 -0.00000000  0.00000000       0.006
   0.09090909  0.09090909  0.00000000       0.005
   0.18181818  0.09090909  0.00000000       0.018
   0.27272727  0.09090909 -0.00000000       0.018
   0.36363636  0.09090909 -0.00000000       0.018
   0.45454545  0.09090909  0.00000000       0.018
  -0.45454545  0.09090909 -0.00000000       0.018
  -0.36363636  0.09090909 -0.00000000       0.018
  -0.27272727  0.09090909  0.00000000       0.018
  -0.18181818  0.09090909  0.00000000       0.018
  -0.09090909  0.09090909 -0.00000000       0.009
   0.18181818  0.18181818  0.00000000       0.005
   0.27272727  0.18181818 -0.00000000       0.018
   0.36363636  0.18181818  0.00000000       0.018
   0.45454545  0.18181818  0.00000000       0.018
  -0.45454545  0.18181818 -0.00000000       0.018
  -0.36363636  0.18181818  0.00000000       0.018
  -0.27272727  0.18181818  0.00000000       0.018
  -0.18181818  0.18181818 -0.00000000       0.009
   0.27272727  0.27272727 -0.00000000       0.005
   0.36363636  0.27272727  0.00000000       0.018
   0.45454545  0.27272727  0.00000000       0.018
  -0.45454545  0.27272727 -0.00000000       0.018
  -0.36363636  0.27272727  0.00000000       0.018
  -0.27272727  0.27272727  0.00000000       0.009
   0.36363636  0.36363636  0.00000000       0.005
   0.45454545  0.36363636  0.00000000       0.018
  -0.45454545  0.36363636 -0.00000000       0.018
  -0.36363636  0.36363636 -0.00000000       0.009
   0.45454545  0.45454545  0.00000000       0.005
  -0.45454545  0.45454545  0.00000000       0.009
   0.27272727  0.18181818  0.09090909       0.018
   0.36363636  0.18181818  0.09090909       0.036
   0.45454545  0.18181818  0.09090909       0.036
  -0.45454545  0.18181818  0.09090909       0.036
   0.36363636  0.27272727  0.09090909       0.018
   0.45454545  0.27272727  0.09090909       0.036
  -0.45454545  0.27272727  0.09090909       0.036
  -0.36363636  0.27272727  0.09090909       0.036
  -0.27272727  0.27272727  0.09090909       0.036
  -0.18181818  0.27272727  0.09090909       0.018
   0.45454545  0.36363636  0.09090909       0.018
  -0.45454545  0.36363636  0.09090909       0.036
  -0.36363636  0.36363636  0.09090909       0.036
  -0.27272727  0.36363636  0.09090909       0.018
  -0.45454545  0.45454545  0.09090909       0.018
  -0.36363636  0.45454545  0.09090909       0.018
  -0.45454545  0.36363636  0.18181818       0.018
  -0.36363636  0.36363636  0.18181818       0.036
  -0.36363636  0.45454545  0.18181818       0.018
  -0.27272727  0.45454545  0.18181818       0.018

 position of ions in fractional coordinates (direct lattice)
   0.00000000  0.00000000  0.00000000

 position of ions in cartesian coordinates  (Angst):
   0.00000000  0.00000000  0.00000000

 k-point   1 :   0.0000 0.0000 0.0000  plane waves:     113
 k-point   2 :   0.0909 0.0000 0.0000  plane waves:     113
 k-point   3 :   0.1818 0.0000 0.0000  plane waves:     116
 k-point   4 :   0.2727-0.0000-0.0000  plane waves:     114
 k-point   5 :   0.3636 0.0000 0.0000  plane waves:     114
 k-point   6 :   0.4545-0.0000 0.0000  plane waves:     108
 k-point   7 :   0.0909 0.0909 0.0000  plane waves:     113
 k-point   8 :   0.1818 0.0909 0.0000  plane waves:     116
 k-point   9 :   0.2727 0.0909-0.0000  plane waves:     110
 k-point  10 :   0.3636 0.0909-0.0000  plane waves:     109
 k-point  11 :   0.4545 0.0909 0.0000  plane waves:     112
 k-point  12 :  -0.4545 0.0909-0.0000  plane waves:     112
 k-point  13 :  -0.3636 0.0909-0.0000  plane waves:     111
 k-point  14 :  -0.2727 0.0909 0.0000  plane waves:     109
 k-point  15 :  -0.1818 0.0909 0.0000  plane waves:     113
 k-point  16 :  -0.0909 0.0909-0.0000  plane waves:     117
 k-point  17 :   0.1818 0.1818 0.0000  plane waves:     113
 k-point  18 :   0.2727 0.1818-0.0000  plane waves:     114
 k-point  19 :   0.3636 0.1818 0.0000  plane waves:     112
 k-point  20 :   0.4545 0.1818 0.0000  plane waves:     113
 k-point  21 :  -0.4545 0.1818-0.0000  plane waves:     111
 k-point  22 :  -0.3636 0.1818 0.0000  plane waves:     109
 k-point  23 :  -0.2727 0.1818 0.0000  plane waves:     112
 k-point  24 :  -0.1818 0.1818-0.0000  plane waves:     111
 k-point  25 :   0.2727 0.2727-0.0000  plane waves:     113
 k-point  26 :   0.3636 0.2727 0.0000  plane waves:     113
 k-point  27 :   0.4545 0.2727 0.0000  plane waves:     108
 k-point  28 :  -0.4545 0.2727-0.0000  plane waves:     108
 k-point  29 :  -0.3636 0.2727 0.0000  plane waves:     107
 k-point  30 :  -0.2727 0.2727 0.0000  plane waves:     107
 k-point  31 :   0.3636 0.3636 0.0000  plane waves:     113
 k-point  32 :   0.4545 0.3636 0.0000  plane waves:     110
 k-point  33 :  -0.4545 0.3636-0.0000  plane waves:     108
 k-point  34 :  -0.3636 0.3636-0.0000  plane waves:     110
 k-point  35 :   0.4545 0.4545 0.0000  plane waves:     112
 k-point  36 :  -0.4545 0.4545 0.0000  plane waves:     114
 k-point  37 :   0.2727 0.1818 0.0909  plane waves:     115
 k-point  38 :   0.3636 0.1818 0.0909  plane waves:     111
 k-point  39 :   0.4545 0.1818 0.0909  plane waves:     110
 k-point  40 :  -0.4545 0.1818 0.0909  plane waves:     109
 k-point  41 :   0.3636 0.2727 0.0909  plane waves:     114
 k-point  42 :   0.4545 0.2727 0.0909  plane waves:     114
 k-point  43 :  -0.4545 0.2727 0.0909  plane waves:     113
 k-point  44 :  -0.3636 0.2727 0.0909  plane waves:     111
 k-point  45 :  -0.2727 0.2727 0.0909  plane waves:     112
 k-point  46 :  -0.1818 0.2727 0.0909  plane waves:     110
 k-point  47 :   0.4545 0.3636 0.0909  plane waves:     111
 k-point  48 :  -0.4545 0.3636 0.0909  plane waves:     107
 k-point  49 :  -0.3636 0.3636 0.0909  plane waves:     108
 k-point  50 :  -0.2727 0.3636 0.0909  plane waves:     109
 k-point  51 :  -0.4545 0.4545 0.0909  plane waves:     110
 k-point  52 :  -0.3636 0.4545 0.0909  plane waves:     106
 k-point  53 :  -0.4545 0.3636 0.1818  plane waves:     109
 k-point  54 :  -0.3636 0.3636 0.1818  plane waves:     110
 k-point  55 :  -0.3636 0.4545 0.1818  plane waves:     105
 k-point  56 :  -0.2727 0.4545 0.1818  plane waves:     110

 maximum and minimum number of plane-waves per node :       117      105

 maximum number of plane-waves:       117
 maximum index in each direction:
   IXMAX=    3   IYMAX=    3   IZMAX=    3
   IXMIN=   -3   IYMIN=   -3   IZMIN=   -3

 serial   3D FFT for wavefunctions
 parallel 3D FFT for charge:
    minimum data exchange during FFTs selected (reduces bandwidth)

 Broyden mixing: mesh for mixing (old mesh)
   NGX =  7   NGY =  7   NGZ =  7
  (NGX  = 20   NGY  = 20   NGZ  = 20)
  gives a total of    343 points

 initial charge density was supplied:
 charge density of overlapping atoms calculated
 number of electron      10.0000000 magnetization       1.0000000
 keeping initial charge density in first step

 Maximum index for augmentation-charges          733 (set IRDMAX)

 First call to EWALD:  gamma=   0.797
 Maximum number of real-space cells 3x 3x 3
 Maximum number of reciprocal cells 3x 3x 3

--------------------------------------- Iteration      1(   1)  ---------------------------------------

 BZINTS: Fermi energy:   15.868479;   10.000000 electrons
         Band energy: 0.110555E+03;  BLOECHL correction:   -0.231651

 eigenvalue-minimisations  :  2976
 total energy-change (2. order) : 0.1773500E+02  (-0.3043718E+03)
 number of electron      10.0000000 magnetization       1.0000000
 augmentation part       10.0000000 magnetization       1.0000000

 Free energy of the ion-electron system (eV)
  alpha Z        PSCENC =        46.37681830
  Ewald energy   TEWEN  =      -935.14218197
  -Hartree energ DENC   =      -246.59910865
  -exchange      EXHF   =         0.00000000
  -V(xc)+E(xc)   XCENC  =        31.74608782
  PAW double counting   =       962.83317360    -1029.67071227
  entropy T*S    EENTRO =         0.00000000
  eigenvalues    EBANDS =       110.55484413
  atomic energy  EATOM  =      1077.63607467
  Solvation  Ediel_sol  =         0.00000000
  free energy    TOTEN  =        17.73499562 eV

  energy without entropy =       17.73499562  energy(sigma->0) =       17.73499562

[...]

 eigenvalue-minimisations  :  2900
 total energy-change (2. order) :-0.2376286E+02  (-0.2254255E+02)
 number of electron      10.0000000 magnetization       1.0000000
 augmentation part       10.0000000 magnetization       1.0000000

[...]

 Broyden mixing:
  rms(total) = 0.97320E+00    rms(broyden)= 0.97293E+00
  rms(prec ) = 0.32159E+01
  weight for this iteration     100.00

[...]

 eigenvalues of (default mixing * dielectric matrix)
  average eigenvalue GAMMA=   0.6763
  0.6763

[...]

 eigenvalue-minimisations  :  2020
 total energy-change (2. order) : 0.6011449E-03  (-0.6475631E-04)
 number of electron       9.9999909 magnetization       0.5900064
 augmentation part        6.1652084 magnetization       0.5706331

 Broyden mixing:
  rms(total) = 0.24463E-02    rms(broyden)= 0.24452E-02
  rms(prec ) = 0.42716E-02
  weight for this iteration     100.00

 eigenvalues of (default mixing * dielectric matrix)
  average eigenvalue GAMMA=   1.1579
  2.4087  1.2560  0.8696  0.6479  0.6071

[...]

--------------------------------------- Iteration      1(  11)  ---------------------------------------

[...]

 eigenvalue-minimisations  :  1464
 total energy-change (2. order) :-0.1000834E-04  (-0.3546387E-05)
 number of electron       9.9999909 magnetization       0.5900064
 augmentation part        6.1652084 magnetization       0.5706331

 Free energy of the ion-electron system (eV)
  alpha Z        PSCENC =        46.37681830
  Ewald energy   TEWEN  =      -935.14218197
  -Hartree energ DENC   =      -225.97758114
  -exchange      EXHF   =         0.00000000
  -V(xc)+E(xc)   XCENC  =        30.67961356
  PAW double counting   =      1133.02507961    -1201.49583042
  entropy T*S    EENTRO =         0.00000000
  eigenvalues    EBANDS =        69.43862654
  atomic energy  EATOM  =      1077.63607467
  Solvation  Ediel_sol  =         0.00000000
  free energy    TOTEN  =        -5.45938084 eV

  energy without entropy =       -5.45938084  energy(sigma->0) =       -5.45938084

 average (electrostatic) potential at core
  the test charge radii are     0.9791
  (the norm of the test charge is              1.0000)
       1 -82.1400

 E-fermi :   9.2194     XC(G=0): -13.1916     alpha+bet :-16.2879

 Fermi energy:         9.2193729653

 spin component 1

 k-point     1 :       0.0000    0.0000    0.0000
  band No.  band energies     occupation
      1       0.2952      1.00000
      2       6.8407      1.00000
      3       6.8407      1.00000
      4       6.8407      1.00000
      5       7.9897      1.00000
      6       7.9897      1.00000
      7      32.8977      0.00000
      8      36.6579      0.00000
      9      36.6581      0.00000
     10      36.6581      0.00000
     11      39.7236      0.00000
     12      39.7237      0.00000

[...]

 k-point    56 :      -0.2727    0.4545    0.1818
  band No.  band energies     occupation
      1       5.5505      1.00000
      2       5.9887      1.00000
      3       6.4237      1.00000
      4       7.9406      1.00000
      5       8.7138      1.00000
      6      16.4006      0.00000
      7      16.4294      0.00000
      8      19.4384      0.00000
      9      21.3935      0.00000
     10      37.2955      0.00000
     11      41.1073      0.00000
     12      42.2780      0.00000
 Fermi energy:         9.2193729653

 spin component 2

[...]

 k-point    56 :      -0.2727    0.4545    0.1818
  band No.  band energies     occupation
      1       5.9261      1.00000
      2       6.5445      1.00000
      3       6.9911      1.00000
      4       8.5001      1.00000
      5       9.5120     -0.01148
      6      16.5584      0.00000
      7      16.5986      0.00000
      8      19.5899      0.00000
      9      21.4985      0.00000
     10      37.2898      0.00000
     11      41.0628      0.00000
     12      42.3373      0.00000

 soft charge-density along one line, spin component           1
         0         1         2         3         4         5         6         7         8         9
 total charge-density along one line

 soft charge-density along one line, spin component           2
         0         1         2         3         4         5         6         7         8         9
 total charge-density along one line

------------------------ aborting loop because EDIFF is reached ----------------------------------------

 total charge

# of ion       s       p       d       tot
    1        0.492   0.486   8.313   9.290

 magnetization (x)

[...]

  FORCE on cell =-STRESS in cart. coord.  units (eV):
  Direction    XX          YY          ZZ          XY          YZ          ZX
  Alpha Z    46.37682    46.37682    46.37682
  Ewald    -311.71407  -311.71407  -311.71407     0.00000    -0.00000     0.00000
  Hartree    75.32206    75.32206    75.32206     0.00000     0.00000     0.00000
  E(xc)     -55.01208   -55.01207   -55.01208    -0.00006    -0.00006    -0.00006
  Local      -1.17647    -1.17643    -1.17647     0.00069     0.00069     0.00068
  n-local    -7.51129   -10.25322    -7.85171    -3.25675     1.63619     2.74464
  augment   176.10816   176.10809   176.10816    -0.00042    -0.00042    -0.00040
  Kinetic    77.41018    80.00601    76.88133     1.51868    -1.33309    -1.24035
  Fock        0.00000     0.00000     0.00000     0.00000     0.00000     0.00000
  Total      -0.53516    -0.53516    -0.53516     0.00000     0.00000     0.00000
  in kB     -77.97005   -77.97005   -77.97005     0.00000     0.00000     0.00000

 VOLUME and BASIS-vectors are now :
  energy-cutoff  :      270.00
  volume of cell :       11.00
      direct lattice vectors                 reciprocal lattice vectors
     1.765000000  1.765000000  0.000000000     0.283286119  0.283286119 -0.283286119
     0.000000000  1.765000000  1.765000000    -0.283286119  0.283286119  0.283286119
     1.765000000  0.000000000  1.765000000     0.283286119 -0.283286119  0.283286119

  length of vectors
     2.496086938  2.496086938  2.496086938     0.490665951  0.490665951  0.490665951

 FORCES acting on ions
    electron-ion (+dipol)            ewald-force                    non-local-force                 convergence-correction
   0.382E-13 0.483E-13 0.360E-13   -.749E-15 0.780E-15 0.540E-15   0.797E-23 0.116E-22 0.278E-22   -.392E-14 0.501E-14 0.169E-13
   0.382E-13 0.483E-13 0.360E-13   -.749E-15 0.780E-15 0.540E-15   0.797E-23 0.116E-22 0.278E-22   -.392E-14 0.501E-14 0.169E-13

 POSITION                                       TOTAL-FORCE (eV/Angst)
      0.00000      0.00000      0.00000        -0.000000      0.000000      0.000000
    total drift:                                0.000000      0.000000      0.000000

  FREE ENERGIE OF THE ION-ELECTRON SYSTEM (eV)
  free  energy   TOTEN  =        -5.45938084 eV

  energy  without entropy=       -5.45938084  energy(sigma->0) =       -5.45938084

 writing wavefunctions
|           W    W    AA    RRRRR   N    N  II  N    N   GGGG   !!!           |
|           W    W   A  A   R    R  NN   N  II  NN   N  G    G  !!!           |
|           W    W  A    A  R    R  N N  N  II  N N  N  G       !!!           |
|           W WW W  AAAAAA  RRRRR   N  N N  II  N  N N  G  GGG   !            |
|           WW  WW  A    A  R   R   N   NN  II  N   NN  G    G                |
|           W    W  A    A  R    R  N    N  II  N    N   GGGG   !!!           |
|     Tetrahedron method does not include variations of the Fermi             |
|     occupations, so forces and stress will be inaccurate. We suggest        |
|     using a different smearing scheme ISMEAR = 1 or 2 for metals in         |
|     relaxations.                                                            |

 total charge

[...]

 magnetization (x)

# of ion       s       p       d       tot
    1       -0.007  -0.027   0.641   0.606

 BZINTS: Fermi energy:    9.219373;   10.000000 electrons
         Band energy: 0.694386E+02;  BLOECHL correction:   -0.034091