 vasp.6.3.0 20Jan22 (build Feb 01 2022 17:34:01) complex

 executed on           TETRA_NSC1 date 2022.02.23  15:11:09

 INCAR:
   SYSTEM = Ni fcc bulk
   ISTART = 0
   MAGMOM = 0.0 0.0 1.0
   ISMEAR = -5
   VOSKOWN = 1
   LORBIT = 11
   LNONCOLLINEAR = .TRUE.

 POTCAR:    PAW_PBE Ni 02Aug2007
 POTCAR:    PAW_PBE Ni 02Aug2007
   VRHFIN =Ni:

   TITEL  = PAW_PBE Ni 02Aug2007
   POMASS =   58.690; ZVAL   =   10.000    mass and valenz
   ENMAX  =  269.532; ENMIN  =  202.149 eV

  PAW_PBE Ni 02Aug2007                  :

 POSCAR: fcc Ni
  positions in cartesian coordinates
 exchange correlation table for  LEXCH =        8
   RHO(1)=    0.500       N(1)  =     2000
   RHO(2)=  100.500       N(2)  =     4000

 ion  position               nearest neighbor table
   1  0.000  0.000  0.000-

  LATTYP: Found a face centered cubic cell.
 ALAT       =     3.5228437763

  Lattice vectors:

 A1 = (   1.7614218882,   1.7614218882,   0.0000000000)
 A2 = (   0.0000000000,   1.7614218882,   1.7614218882)
 A3 = (   1.7614218882,   0.0000000000,   1.7614218882)

Analysis of symmetry for initial positions (statically):
 Subroutine PRICEL returns:
 Original cell was already a primitive cell.

 Routine SETGRP: Setting up the symmetry group for a
 face centered cubic supercell.

 Subroutine GETGRP returns: Found 48 space group operations
 (whereof 48 operations were pure point group operations)
 out of a pool of 48 trial point group operations.

The static configuration has the point symmetry O_h .

Analysis of symmetry for dynamics (positions and initial velocities):
 Subroutine PRICEL returns:
 Original cell was already a primitive cell.

[...]

The dynamic configuration has the point symmetry O_h .

Analysis of structural, dynamic, and magnetic symmetry:
 Subroutine PRICEL returns:
 Original cell was already a primitive cell.

 Routine SETGRP: Setting up the symmetry group for a
 face centered cubic supercell.

 Subroutine GETGRP returns: Found  8 space group operations
 (whereof  8 operations were pure point group operations)
 out of a pool of 48 trial point group operations.

The overall configuration has the point symmetry C_4h.

 Subroutine INISYM returns: Found  8 space group operations
 (whereof  8 operations are pure point group operations),
 and found     1 'primitive' translations

                                     Primitive cell

  volume of cell :      10.9300

  direct lattice vectors                    reciprocal lattice vectors
     1.761421888  1.761421888  0.000000000     0.283861580  0.283861580 -0.283861580
     0.000000000  1.761421888  1.761421888    -0.283861580  0.283861580  0.283861580
     1.761421888  0.000000000  1.761421888     0.283861580 -0.283861580  0.283861580

  length of vectors
     2.491026723  2.491026723  2.491026723     0.491662679  0.491662679  0.491662679

  position of ions in fractional coordinates (direct lattice)
     0.000000000  0.000000000  0.000000000

  ion indices of the primitive-cell ions
   primitive index   ion index
                 1           1

 KPOINTS: k-points

Automatic generation of k-mesh.
 Grid dimensions read from file:
 generate k-points for:   11   11   11

 Generating k-lattice:

  Cartesian coordinates                     Fractional coordinates (reciprocal lattice)
     0.025805598  0.025805598 -0.025805598     0.090909091  0.000000000  0.000000000
    -0.025805598  0.025805598  0.025805598     0.000000000  0.090909091 -0.000000000
     0.025805598 -0.025805598  0.025805598    -0.000000000 -0.000000000  0.090909091

  Length of vectors
     0.044696607  0.044696607  0.044696607

  Shift w.r.t. Gamma in fractional coordinates (k-lattice)
     0.000000000  0.000000000  0.000000000

 TETIRR: Found   1048 inequivalent tetrahedra from     7986

 Subroutine IBZKPT returns following result:

 Found    186 irreducible k-points:

 Following reciprocal coordinates:
            Coordinates               Weight
  0.000000  0.000000  0.000000      1.000000
  0.090909  0.000000  0.000000      8.000000
  0.181818 -0.000000 -0.000000      8.000000
  0.272727 -0.000000 -0.000000      8.000000
  0.363636 -0.000000 -0.000000      8.000000
  0.454545 -0.000000  0.000000      8.000000
  0.090909  0.090909 -0.000000      4.000000
  0.000000  0.090909  0.090909      2.000000
  0.181818  0.090909  0.000000      8.000000
  0.000000  0.181818  0.090909      8.000000
  0.090909  0.090909 -0.090909      8.000000
  0.272727  0.090909  0.000000      8.000000
  0.000000  0.272727  0.090909      8.000000
  0.090909  0.090909 -0.181818      8.000000
  0.363636  0.090909  0.000000      8.000000
  0.000000  0.363636  0.090909      8.000000
  0.090909  0.090909 -0.272727      8.000000
  0.454545  0.090909  0.000000      8.000000
  0.000000  0.454545  0.090909      8.000000
  0.090909  0.090909 -0.363636      8.000000
 -0.454545  0.090909  0.000000      8.000000
 -0.000000 -0.454545  0.090909      8.000000
  0.090909  0.090909 -0.454545      8.000000
 -0.363636  0.090909 -0.000000      8.000000
 -0.000000 -0.363636  0.090909      8.000000
  0.090909  0.090909  0.454545      8.000000
 -0.272727  0.090909  0.000000      8.000000
 -0.000000 -0.272727  0.090909      8.000000
  0.090909  0.090909  0.363636      8.000000
 -0.181818  0.090909  0.000000      8.000000
 -0.000000 -0.181818  0.090909      8.000000
  0.090909  0.090909  0.272727      8.000000
 -0.090909  0.090909 -0.000000      8.000000
 -0.000000 -0.090909  0.090909      4.000000
  0.181818  0.181818  0.000000      4.000000
  0.000000  0.181818  0.181818      2.000000
  0.272727  0.181818  0.000000      8.000000
  0.000000  0.272727  0.181818      8.000000
  0.181818  0.181818 -0.090909      8.000000
  0.363636  0.181818  0.000000      8.000000
  0.000000  0.363636  0.181818      8.000000
  0.181818  0.181818 -0.181818      8.000000
  0.454545  0.181818  0.000000      8.000000
  0.000000  0.454545  0.181818      8.000000
  0.181818  0.181818 -0.272727      8.000000
 -0.454545  0.181818 -0.000000      8.000000
 -0.000000 -0.454545  0.181818      8.000000
  0.181818  0.181818 -0.363636      8.000000
 -0.363636  0.181818  0.000000      8.000000
  0.000000 -0.363636  0.181818      8.000000
  0.181818  0.181818 -0.454545      8.000000
 -0.272727  0.181818  0.000000      8.000000
  0.000000 -0.272727  0.181818      8.000000
  0.181818  0.181818  0.454545      8.000000
 -0.181818  0.181818  0.000000      8.000000
  0.000000 -0.181818  0.181818      4.000000
  0.272727  0.272727  0.000000      4.000000
  0.000000  0.272727  0.272727      2.000000
  0.363636  0.272727  0.000000      8.000000
  0.000000  0.363636  0.272727      8.000000
[...]
 -0.454545  0.181818  0.363636      4.000000
 -0.363636  0.363636  0.181818      8.000000
  0.181818 -0.363636  0.363636      8.000000
  0.363636  0.181818 -0.363636      8.000000
  0.363636  0.181818 -0.272727      8.000000
 -0.363636  0.272727  0.454545      8.000000
  0.181818 -0.454545 -0.181818      8.000000
 -0.363636  0.454545  0.181818      4.000000
  0.181818 -0.363636  0.454545      8.000000
  0.454545  0.181818 -0.363636      8.000000
 -0.363636  0.181818  0.454545      4.000000
 -0.272727  0.454545  0.181818      8.000000
  0.181818 -0.272727  0.454545      4.000000
  0.454545  0.181818 -0.272727      8.000000
  0.181818  0.454545 -0.272727      4.000000

 Following cartesian coordinates:
            Coordinates               Weight
  0.000000  0.000000  0.000000      1.000000
  0.090909  0.090909 -0.090909      8.000000
  0.181818  0.181818 -0.181818      8.000000
  0.272727  0.272727 -0.272727      8.000000
  0.363636  0.363636 -0.363636      8.000000
  0.454545  0.454545 -0.454545      8.000000
  0.000000  0.181818 -0.000000      4.000000
  0.000000 -0.000000  0.181818      2.000000
  0.090909  0.272727 -0.090909      8.000000
 -0.090909  0.090909  0.272727      8.000000
 -0.090909  0.272727 -0.090909      8.000000
  0.181818  0.363636 -0.181818      8.000000
 -0.181818  0.181818  0.363636      8.000000
 -0.181818  0.363636 -0.181818      8.000000
  0.272727  0.454545 -0.272727      8.000000
 -0.272727  0.272727  0.454545      8.000000
 -0.272727  0.454545 -0.272727      8.000000
  0.363636  0.545455 -0.363636      8.000000
 -0.363636  0.363636  0.545455      8.000000
 -0.363636  0.545455 -0.363636      8.000000
 -0.545455 -0.363636  0.545455      8.000000
  0.545455 -0.545455 -0.363636      8.000000
 -0.454545  0.636364 -0.454545      8.000000
 -0.454545 -0.272727  0.454545      8.000000
  0.454545 -0.454545 -0.272727      8.000000
  0.454545 -0.272727  0.454545      8.000000
 -0.363636 -0.181818  0.363636      8.000000
  0.363636 -0.363636 -0.181818      8.000000
  0.363636 -0.181818  0.363636      8.000000
 -0.272727 -0.090909  0.272727      8.000000
  0.272727 -0.272727 -0.090909      8.000000
  0.272727 -0.090909  0.272727      8.000000
 -0.181818 -0.000000  0.181818      8.000000
  0.181818 -0.181818 -0.000000      4.000000
  0.000000  0.363636  0.000000      4.000000
 -0.000000  0.000000  0.363636      2.000000
  0.090909  0.454545 -0.090909      8.000000
 -0.090909  0.090909  0.454545      8.000000
 -0.090909  0.454545 -0.090909      8.000000
  0.181818  0.545455 -0.181818      8.000000
 -0.181818  0.181818  0.545455      8.000000
 -0.181818  0.545455 -0.181818      8.000000
  0.272727  0.636364 -0.272727      8.000000
 -0.272727  0.272727  0.636364      8.000000
 -0.272727  0.636364 -0.272727      8.000000
 -0.636364 -0.272727  0.636364      8.000000
  0.636364 -0.636364 -0.272727      8.000000
 -0.363636  0.727273 -0.363636      8.000000
 -0.545455 -0.181818  0.545455      8.000000
  0.545455 -0.545455 -0.181818      8.000000
 -0.454545  0.818182 -0.454545      8.000000
 -0.454545 -0.090909  0.454545      8.000000
  0.454545 -0.454545 -0.090909      8.000000
  0.454545 -0.090909  0.454545      8.000000
 -0.363636 -0.000000  0.363636      8.000000
  0.363636 -0.363636 -0.000000      4.000000
  0.000000  0.545455  0.000000      4.000000
  0.000000 -0.000000  0.545455      2.000000
  0.090909  0.636364 -0.090909      8.000000
 -0.090909  0.090909  0.636364      8.000000
[...]
 -0.272727 -0.636364  1.000000      4.000000
 -0.545455 -0.181818  0.909091      8.000000
  0.909091 -0.545455 -0.181818      8.000000
 -0.181818  0.909091 -0.545455      8.000000
 -0.090909  0.818182 -0.454545      8.000000
 -0.181818 -0.545455  1.090909      8.000000
  0.454545 -0.090909 -0.818182      8.000000
 -0.636364 -0.090909  1.000000      4.000000
  1.000000 -0.636364 -0.090909      8.000000
 -0.090909  1.000000 -0.636364      8.000000
 -0.090909 -0.636364  1.000000      4.000000
 -0.545455 -0.000000  0.909091      8.000000
  0.909091 -0.545455 -0.000000      4.000000
  0.000000  0.909091 -0.545455      8.000000
 -0.545455  0.909091 -0.000000      4.000000

 SYSTEM =  Ni fcc bulk
 POSCAR =  fcc Ni

 Startparameter for this run:
   NWRITE =      2    write-flag & timer
   PREC   = normal    normal or accurate (medium, high low for compatibility)
   ISTART =      0    job   : 0-new  1-cont  2-samecut
   ICHARG =      2    charge: 1-file 2-atom 10-const
   ISPIN  =      1    spin polarized calculation?
   LNONCOLLINEAR =      T non collinear calculations
[...]
[...]
  -0.45454545  0.18181818  0.36363636       0.003
  -0.36363636  0.36363636  0.18181818       0.006
   0.18181818 -0.36363636  0.36363636       0.006
   0.36363636  0.18181818 -0.36363636       0.006
   0.36363636  0.18181818 -0.27272727       0.006
  -0.36363636  0.27272727  0.45454545       0.006
   0.18181818 -0.45454545 -0.18181818       0.006
  -0.36363636  0.45454545  0.18181818       0.003
   0.18181818 -0.36363636  0.45454545       0.006
   0.45454545  0.18181818 -0.36363636       0.006
  -0.36363636  0.18181818  0.45454545       0.003
  -0.27272727  0.45454545  0.18181818       0.006
   0.18181818 -0.27272727  0.45454545       0.003
   0.45454545  0.18181818 -0.27272727       0.006
   0.18181818  0.45454545 -0.27272727       0.003

 position of ions in fractional coordinates (direct lattice)
   0.00000000  0.00000000  0.00000000

 position of ions in cartesian coordinates  (Angst):
   0.00000000  0.00000000  0.00000000

 Euler angles ALPHA=     0.0000000  BETA=     0.0000000

 transformation matrix from SAXIS to cartesian coordinates
     1.0000000 m_x     0.0000000 m_y     0.0000000 m_z
     0.0000000 m_x     1.0000000 m_y     0.0000000 m_z
     0.0000000 m_x     0.0000000 m_y     1.0000000 m_z

 transformation matrix from cartesian coordinates to SAXIS
     1.0000000 m_x     0.0000000 m_y     0.0000000 m_z
     0.0000000 m_x     1.0000000 m_y     0.0000000 m_z
     0.0000000 m_x     0.0000000 m_y     1.0000000 m_z

 k-point   1 :   0.0000 0.0000 0.0000  plane waves:     226
 k-point   2 :   0.0909 0.0000 0.0000  plane waves:     226
 k-point   3 :   0.1818-0.0000-0.0000  plane waves:     220
 k-point   4 :   0.2727-0.0000-0.0000  plane waves:     226
 k-point   5 :   0.3636-0.0000-0.0000  plane waves:     222
 k-point   6 :   0.4545-0.0000 0.0000  plane waves:     216
 k-point   7 :   0.0909 0.0909-0.0000  plane waves:     226
 k-point   8 :   0.0000 0.0909 0.0909  plane waves:     226
 k-point   9 :   0.1818 0.0909 0.0000  plane waves:     232
 k-point  10 :   0.0000 0.1818 0.0909  plane waves:     232
 k-point  11 :   0.0909 0.0909-0.0909  plane waves:     232
 k-point  12 :   0.2727 0.0909 0.0000  plane waves:     220
 k-point  13 :   0.0000 0.2727 0.0909  plane waves:     220
 k-point  14 :   0.0909 0.0909-0.1818  plane waves:     220
 k-point  15 :   0.3636 0.0909 0.0000  plane waves:     218
 k-point  16 :   0.0000 0.3636 0.0909  plane waves:     218
 k-point  17 :   0.0909 0.0909-0.2727  plane waves:     218
 k-point  18 :   0.4545 0.0909 0.0000  plane waves:     224
 k-point  19 :   0.0000 0.4545 0.0909  plane waves:     224
 k-point  20 :   0.0909 0.0909-0.3636  plane waves:     224
 k-point  21 :  -0.4545 0.0909 0.0000  plane waves:     224
 k-point  22 :  -0.0000-0.4545 0.0909  plane waves:     224
 k-point  23 :   0.0909 0.0909-0.4545  plane waves:     224
 k-point  24 :  -0.3636 0.0909-0.0000  plane waves:     214
 k-point  25 :  -0.0000-0.3636 0.0909  plane waves:     214
 k-point  26 :   0.0909 0.0909 0.4545  plane waves:     214
 k-point  27 :  -0.2727 0.0909 0.0000  plane waves:     218
 k-point  28 :  -0.0000-0.2727 0.0909  plane waves:     218
 k-point  29 :   0.0909 0.0909 0.3636  plane waves:     218
 k-point  30 :  -0.1818 0.0909 0.0000  plane waves:     224
 k-point  31 :  -0.0000-0.1818 0.0909  plane waves:     224
 k-point  32 :   0.0909 0.0909 0.2727  plane waves:     224
 k-point  33 :  -0.0909 0.0909-0.0000  plane waves:     230
 k-point  34 :  -0.0000-0.0909 0.0909  plane waves:     230
 k-point  35 :   0.1818 0.1818 0.0000  plane waves:     226
 k-point  36 :   0.0000 0.1818 0.1818  plane waves:     226
 k-point  37 :   0.2727 0.1818 0.0000  plane waves:     222
 k-point  38 :   0.0000 0.2727 0.1818  plane waves:     222
 k-point  39 :   0.1818 0.1818-0.0909  plane waves:     222
 k-point  40 :   0.3636 0.1818 0.0000  plane waves:     224
 k-point  41 :   0.0000 0.3636 0.1818  plane waves:     224
 k-point  42 :   0.1818 0.1818-0.1818  plane waves:     224
 k-point  43 :   0.4545 0.1818 0.0000  plane waves:     220
 k-point  44 :   0.0000 0.4545 0.1818  plane waves:     220
 k-point  45 :   0.1818 0.1818-0.2727  plane waves:     220
 k-point  46 :  -0.4545 0.1818-0.0000  plane waves:     218
 k-point  47 :  -0.0000-0.4545 0.1818  plane waves:     218
 k-point  48 :   0.1818 0.1818-0.3636  plane waves:     218
 k-point  49 :  -0.3636 0.1818 0.0000  plane waves:     218
 k-point  50 :   0.0000-0.3636 0.1818  plane waves:     218
 k-point  51 :   0.1818 0.1818-0.4545  plane waves:     218
 k-point  52 :  -0.2727 0.1818 0.0000  plane waves:     216
 k-point  53 :   0.0000-0.2727 0.1818  plane waves:     216
 k-point  54 :   0.1818 0.1818 0.4545  plane waves:     216
 k-point  55 :  -0.1818 0.1818 0.0000  plane waves:     222
 k-point  56 :   0.0000-0.1818 0.1818  plane waves:     222
 k-point  57 :   0.2727 0.2727 0.0000  plane waves:     226
 k-point  58 :   0.0000 0.2727 0.2727  plane waves:     226
 k-point  59 :   0.3636 0.2727 0.0000  plane waves:     218
 k-point  60 :   0.0000 0.3636 0.2727  plane waves:     218
[...]
 k-point 172 :  -0.4545 0.1818 0.3636  plane waves:     218
 k-point 173 :  -0.3636 0.3636 0.1818  plane waves:     218
 k-point 174 :   0.1818-0.3636 0.3636  plane waves:     218
 k-point 175 :   0.3636 0.1818-0.3636  plane waves:     218
 k-point 176 :   0.3636 0.1818-0.2727  plane waves:     218
 k-point 177 :  -0.3636 0.2727 0.4545  plane waves:     218
 k-point 178 :   0.1818-0.4545-0.1818  plane waves:     218
 k-point 179 :  -0.3636 0.4545 0.1818  plane waves:     210
 k-point 180 :   0.1818-0.3636 0.4545  plane waves:     210
 k-point 181 :   0.4545 0.1818-0.3636  plane waves:     210
 k-point 182 :  -0.3636 0.1818 0.4545  plane waves:     210
 k-point 183 :  -0.2727 0.4545 0.1818  plane waves:     216
 k-point 184 :   0.1818-0.2727 0.4545  plane waves:     216
 k-point 185 :   0.4545 0.1818-0.2727  plane waves:     216
 k-point 186 :   0.1818 0.4545-0.2727  plane waves:     216

 maximum and minimum number of plane-waves per node :       232      210

 maximum number of plane-waves:       232
 maximum index in each direction:
   IXMAX=    3   IYMAX=    3   IZMAX=    3
   IXMIN=   -3   IYMIN=   -3   IZMIN=   -3

 serial   3D FFT for wavefunctions
 parallel 3D FFT for charge:
    minimum data exchange during FFTs selected (reduces bandwidth)

 Broyden mixing: mesh for mixing (old mesh)
   NGX =  7   NGY =  7   NGZ =  7
  (NGX  = 20   NGY  = 20   NGZ  = 20)
  gives a total of    343 points

 initial charge density was supplied:
 charge density of overlapping atoms calculated
 number of electron      10.0000000 magnetization       0.0000000      0.0000000      1.0000000
 keeping initial charge density in first step

 Maximum index for augmentation-charges          733 (set IRDMAX)

 First call to EWALD:  gamma=   0.799
 Maximum number of real-space cells 3x 3x 3
 Maximum number of reciprocal cells 3x 3x 3

--------------------------------------- Iteration      1(   1)  ---------------------------------------

 BZINTS: Fermi energy:   17.346696;   10.000000 electrons
         Band energy: 0.123958E+03;  BLOECHL correction:   -0.156287

 eigenvalue-minimisations  :  8312
 total energy-change (2. order) : 0.3045051E+02  (-0.2931946E+03)
 number of electron      10.0000000 magnetization       0.0000000      0.0000000      1.0000000
 augmentation part       10.0000000 magnetization       0.0000000      0.0000000      1.0000000

 Free energy of the ion-electron system (eV)
  alpha Z        PSCENC =        46.66001921
  Ewald energy   TEWEN  =      -937.04180826
  -Hartree energ DENC   =      -245.68884612
  -exchange      EXHF   =         0.00000000
  -V(xc)+E(xc)   XCENC  =        31.76484532
  PAW double counting   =       962.83317360    -1029.67071227
  entropy T*S    EENTRO =         0.00000000
  eigenvalues    EBANDS =       123.95818308
  atomic energy  EATOM  =      1077.63565123
  Solvation  Ediel_sol  =         0.00000000
  free energy    TOTEN  =        30.45050579 eV

  energy without entropy =       30.45050579  energy(sigma->0) =       30.45050579

[...]

 eigenvalue-minimisations  :  7724
 total energy-change (2. order) :-0.3569897E+02  (-0.3305633E+02)
 number of electron      10.0000000 magnetization       0.0000000      0.0000000      1.0000000
 augmentation part       10.0000000 magnetization       0.0000000      0.0000000      1.0000000

[...]

 total charge

# of ion       s       p       d       tot
    1        0.562   0.684   7.954   9.200

 magnetization (x)

[...]

 magnetization (y)

[...]

 magnetization (z)

[...]

 Broyden mixing:
  rms(total) = 0.97723E+00    rms(broyden)= 0.97696E+00
  rms(prec ) = 0.32150E+01
  weight for this iteration     100.00

[...]

 eigenvalues of (default mixing * dielectric matrix)
  average eigenvalue GAMMA=   0.6920
  0.6920

[...]

 eigenvalue-minimisations  :  7064
 total energy-change (2. order) : 0.6799750E-03  (-0.8064414E-05)
 number of electron       9.9999894 magnetization      -0.0000000      0.0000000      0.5883161
 augmentation part        6.1632469 magnetization      -0.0000000      0.0000000      0.5693527

 Broyden mixing:
  rms(total) = 0.29120E-02    rms(broyden)= 0.28889E-02
  rms(prec ) = 0.53205E-02
  weight for this iteration     100.00

 eigenvalues of (default mixing * dielectric matrix)
  average eigenvalue GAMMA=   1.0672
  2.3222  0.9688  0.8013  0.6218  0.6218

[...]

--------------------------------------- Iteration      1(  11)  ---------------------------------------

 BZINTS: Fermi energy:    9.304123;   10.000000 electrons
         Band energy: 0.701176E+02;  BLOECHL correction:   -0.028838

 eigenvalue-minimisations  :  7588
 total energy-change (2. order) :-0.1974798E-04  (-0.1279397E-04)
 number of electron       9.9999894 magnetization      -0.0000000      0.0000000      0.5883161
 augmentation part        6.1632469 magnetization      -0.0000000      0.0000000      0.5693527

 Free energy of the ion-electron system (eV)
  alpha Z        PSCENC =        46.66001921
  Ewald energy   TEWEN  =      -937.04180826
  -Hartree energ DENC   =      -225.06141191
  -exchange      EXHF   =         0.00000000
  -V(xc)+E(xc)   XCENC  =        30.69461417
  PAW double counting   =      1135.79886037    -1204.26765198
  entropy T*S    EENTRO =         0.00000000
  eigenvalues    EBANDS =        70.11763208
  atomic energy  EATOM  =      1077.63565123
  Solvation  Ediel_sol  =         0.00000000
  free energy    TOTEN  =        -5.46409507 eV

  energy without entropy =       -5.46409507  energy(sigma->0) =       -5.46409507

 average (electrostatic) potential at core
  the test charge radii are     0.9791
  (the norm of the test charge is              1.0000)
       1 -82.0652

 E-fermi :   9.3041     XC(G=0): -13.2269     alpha+bet :-16.3874

 Fermi energy:         9.3041226472

 k-point     1 :       0.0000    0.0000    0.0000
  band No.  band energies     occupation
      1       0.2861      1.00000
      2       0.3429      1.00000
      3       6.9139      1.00000
      4       6.9140      1.00000
      5       6.9145      1.00000
      6       7.6044      1.00000
      7       7.6057      1.00000
      8       7.6059      1.00000
      9       8.0679      1.00000
     10       8.0703      1.00000
     11       8.6481      1.00000
     12       8.6493      1.00000
     13      32.8646      0.00000
     14      33.0355      0.00000
     15      36.8058      0.00000
     16      36.8066      0.00000
     17      36.8069      0.00000
     18      36.8458      0.00000
     19      36.8460      0.00000
     20      36.8470      0.00000

[...]

 k-point   186 :       0.1818    0.4545   -0.2727
  band No.  band energies     occupation
      1       5.6081      1.00000
      2       5.9780      1.00000
      3       6.0554      1.00000
      4       6.4928      1.00000
      5       6.6002      1.00000
      6       7.0511      1.00000
      7       8.0185      1.00000
      8       8.5757      1.00000
      9       8.8045      1.00000
     10       9.5949     -0.01292
     11      16.5212      0.00000
     12      16.5513      0.00000
     13      16.6726      0.00000
     14      16.7145      0.00000
     15      19.5810      0.00000
     16      19.7249      0.00000
     17      21.5506      0.00000
     18      21.6439      0.00000
     19      37.4811      0.00000
     20      37.4926      0.00000

 soft charge-density along one line, spin component           1
         0         1         2         3         4         5         6         7         8         9
 total charge-density along one line

[...]

 soft charge-density along one line, spin component           4
         0         1         2         3         4         5         6         7         8         9
 total charge-density along one line

------------------------ aborting loop because EDIFF is reached ----------------------------------------

[...]

  FORCE on cell =-STRESS in cart. coord.  units (eV):
  Direction    XX          YY          ZZ          XY          YZ          ZX
  Alpha Z    46.66002    46.66002    46.66002
  Ewald    -312.34728  -312.34728  -312.34728     0.00000    -0.00000    -0.00000
  Hartree    75.01505    75.01505    75.01001     0.00000     0.00000     0.00000
  E(xc)     -55.03105   -55.03104   -55.03073    -0.00033    -0.00033    -0.00033
  Local      -0.56671    -0.56668    -0.55065     0.00235     0.00234     0.00234
  n-local    -8.22827    -8.59968    -8.42092     0.34167     0.28063     0.39381
  augment   176.07587   176.07581   176.07286    -0.00141    -0.00141    -0.00142
  Kinetic    77.86615    78.48878    78.17151    -0.15520    -0.35651    -0.40648
  Fock        0.00000     0.00000     0.00000     0.00000     0.00000     0.00000
  Total      -0.43062    -0.43062    -0.43519    -0.00001    -0.00000     0.00000
  in kB     -63.12231   -63.12231   -63.79245    -0.00104    -0.00000     0.00000

 VOLUME and BASIS-vectors are now :
  energy-cutoff  :      269.53
  volume of cell :       10.93
      direct lattice vectors                 reciprocal lattice vectors
     1.761421888  1.761421888  0.000000000     0.283861580  0.283861580 -0.283861580
     0.000000000  1.761421888  1.761421888    -0.283861580  0.283861580  0.283861580
     1.761421888  0.000000000  1.761421888     0.283861580 -0.283861580  0.283861580

  length of vectors
     2.491026723  2.491026723  2.491026723     0.491662679  0.491662679  0.491662679

 FORCES acting on ions
    electron-ion (+dipol)            ewald-force                    non-local-force                 convergence-correction
   0.500E-13 0.379E-13 0.434E-13   0.107E-14 0.216E-14 -.120E-14   0.126E-22 0.177E-21 0.126E-22   0.176E-13 0.458E-13 0.451E-13
   0.500E-13 0.379E-13 0.434E-13   0.107E-14 0.216E-14 -.120E-14   0.126E-22 0.177E-21 0.126E-22   0.176E-13 0.458E-13 0.451E-13

 POSITION                                       TOTAL-FORCE (eV/Angst)
      0.00000      0.00000      0.00000        -0.000000      0.000000     -0.000000
    total drift:                                0.000000      0.000000      0.000000

  FREE ENERGIE OF THE ION-ELECTRON SYSTEM (eV)
  free  energy   TOTEN  =        -5.46409507 eV

  energy  without entropy=       -5.46409507  energy(sigma->0) =       -5.46409507

 writing wavefunctions
|           W    W    AA    RRRRR   N    N  II  N    N   GGGG   !!!           |
|           W    W   A  A   R    R  NN   N  II  NN   N  G    G  !!!           |
|           W    W  A    A  R    R  N N  N  II  N N  N  G       !!!           |
|           W WW W  AAAAAA  RRRRR   N  N N  II  N  N N  G  GGG   !            |
|           WW  WW  A    A  R   R   N   NN  II  N   NN  G    G                |
|           W    W  A    A  R    R  N    N  II  N    N   GGGG   !!!           |
|     Tetrahedron method does not include variations of the Fermi             |
|     occupations, so forces and stress will be inaccurate. We suggest        |
|     using a different smearing scheme ISMEAR = 1 or 2 for metals in         |
|     relaxations.                                                            |

 total charge

[...]

 magnetization (x)

[...]

 magnetization (y)

[...]

 magnetization (z)

# of ion       s       p       d       tot
    1       -0.008  -0.027   0.637   0.602

 BZINTS: Fermi energy:    9.304123;   10.000000 electrons
         Band energy: 0.701176E+02;  BLOECHL correction:   -0.028838
 BZINTS: Fermi energy:    9.304123;   10.000000 electrons
         Band energy: 0.701176E+02;  BLOECHL correction:   -0.028838
 BZINTS: Fermi energy:    9.304123;   10.000000 electrons
         Band energy: 0.701176E+02;  BLOECHL correction:   -0.028838
 BZINTS: Fermi energy:    9.304123;   10.000000 electrons
         Band energy: 0.701176E+02;  BLOECHL correction:   -0.028838