 vasp.6.3.0 20Jan22 (build Feb 01 2022 16:52:37) complex

 executed on           TETRA_NSC1 date 2022.02.23  07:32:20

 INCAR:
   SYSTEM = diamond Si
   ISTART = 0
   ICHARG = 10
   ENCUT = 240
   ISMEAR = 0
   SIGMA = 0.1
   LORBIT = 11

 POTCAR:    PAW_PBE Si 05Jan2001
 POTCAR:    PAW_PBE Si 05Jan2001
   VRHFIN =Si: s2p2

   TITEL  = PAW_PBE Si 05Jan2001
   POMASS =   28.085; ZVAL   =    4.000    mass and valenz
   ENMAX  =  245.345; ENMIN  =  184.009 eV

  PAW_PBE Si 05Jan2001                  :

 POSCAR: cubic diamond Si
  positions in direct lattice
 exchange correlation table for  LEXCH =        8
   RHO(1)=    0.500       N(1)  =     2000
   RHO(2)=  100.500       N(2)  =     4000

 ion  position               nearest neighbor table
   1  0.875  0.875  0.875-   2 2.38   2 2.38   2 2.38   2 2.38
   2  0.125  0.125  0.125-   1 2.38   1 2.38   1 2.38   1 2.38

  LATTYP: Found a face centered cubic cell.
 ALAT       =     5.5000000000

  Lattice vectors:

 A1 = (   0.0000000000,   2.7500000000,   2.7500000000)
 A2 = (   2.7500000000,   0.0000000000,   2.7500000000)
 A3 = (   2.7500000000,   2.7500000000,   0.0000000000)

Analysis of symmetry for initial positions (statically):
 Subroutine PRICEL returns:
 Original cell was already a primitive cell.

 Routine SETGRP: Setting up the symmetry group for a
 face centered cubic supercell.

 Subroutine GETGRP returns: Found 48 space group operations
 (whereof 12 operations were pure point group operations)
 out of a pool of 48 trial point group operations.

The static configuration has the point symmetry D_3d.
 The point group associated with its full space group is O_h .

Analysis of symmetry for dynamics (positions and initial velocities):
 Subroutine PRICEL returns:
 Original cell was already a primitive cell.

 Routine SETGRP: Setting up the symmetry group for a
 face centered cubic supercell.

 Subroutine GETGRP returns: Found 48 space group operations
 (whereof 12 operations were pure point group operations)
 out of a pool of 48 trial point group operations.

The dynamic configuration has the point symmetry D_3d.
 The point group associated with its full space group is O_h .

 Subroutine INISYM returns: Found 48 space group operations
 (whereof 12 operations are pure point group operations),
 and found     1 'primitive' translations

                                     Primitive cell

  volume of cell :      41.5938

  direct lattice vectors                    reciprocal lattice vectors
     0.000000000  2.750000000  2.750000000    -0.181818182  0.181818182  0.181818182
     2.750000000  0.000000000  2.750000000     0.181818182 -0.181818182  0.181818182
     2.750000000  2.750000000  0.000000000     0.181818182  0.181818182 -0.181818182

  length of vectors
     3.889087297  3.889087297  3.889087297     0.314918329  0.314918329  0.314918329

  position of ions in fractional coordinates (direct lattice)
     0.875000000  0.875000000  0.875000000
     0.125000000  0.125000000  0.125000000

  ion indices of the primitive-cell ions
   primitive index   ion index
                 1           1
                 2           2

 KPOINTS: k-points for bandstructure L-G-X-U K-G

Interpolating k-points between supplied coordinates.

 Line segments in fractional coordinates (reciprocal lattice):
    0.500000  0.500000  0.500000  ...  0.000000  0.000000  0.000000
    0.000000  0.000000  0.000000  ...  0.000000  0.500000  0.500000
    0.000000  0.500000  0.500000  ...  0.250000  0.625000  0.625000
    0.375000  0.750000  0.375000  ...  0.000000  0.000000  0.000000

 Generated    10 points on each line segment, for a total of     40 k-points:

 Following reciprocal coordinates:
            Coordinates               Weight
  0.500000  0.500000  0.500000      0.025000
  0.444444  0.444444  0.444444      0.025000
  0.388889  0.388889  0.388889      0.025000
  0.333333  0.333333  0.333333      0.025000
  0.277778  0.277778  0.277778      0.025000
  0.222222  0.222222  0.222222      0.025000
  0.166667  0.166667  0.166667      0.025000
  0.111111  0.111111  0.111111      0.025000
  0.055556  0.055556  0.055556      0.025000
  0.000000  0.000000  0.000000      0.025000
  0.000000  0.000000  0.000000      0.025000
  0.000000  0.055556  0.055556      0.025000
  0.000000  0.111111  0.111111      0.025000
  0.000000  0.166667  0.166667      0.025000
  0.000000  0.222222  0.222222      0.025000
  0.000000  0.277778  0.277778      0.025000
  0.000000  0.333333  0.333333      0.025000
  0.000000  0.388889  0.388889      0.025000
  0.000000  0.444444  0.444444      0.025000
  0.000000  0.500000  0.500000      0.025000
  0.000000  0.500000  0.500000      0.025000
  0.027778  0.513889  0.513889      0.025000
  0.055556  0.527778  0.527778      0.025000
  0.083333  0.541667  0.541667      0.025000
  0.111111  0.555556  0.555556      0.025000
  0.138889  0.569444  0.569444      0.025000
  0.166667  0.583333  0.583333      0.025000
  0.194444  0.597222  0.597222      0.025000
  0.222222  0.611111  0.611111      0.025000
  0.250000  0.625000  0.625000      0.025000
  0.375000  0.750000  0.375000      0.025000
  0.333333  0.666667  0.333333      0.025000
  0.291667  0.583333  0.291667      0.025000
  0.250000  0.500000  0.250000      0.025000
  0.208333  0.416667  0.208333      0.025000
  0.166667  0.333333  0.166667      0.025000
  0.125000  0.250000  0.125000      0.025000
  0.083333  0.166667  0.083333      0.025000
  0.041667  0.083333  0.041667      0.025000
  0.000000  0.000000  0.000000      0.025000

 Following cartesian coordinates:
            Coordinates               Weight
  0.500000  0.500000  0.500000      0.025000
  0.444444  0.444444  0.444444      0.025000
  0.388889  0.388889  0.388889      0.025000
  0.333333  0.333333  0.333333      0.025000
  0.277778  0.277778  0.277778      0.025000
  0.222222  0.222222  0.222222      0.025000
  0.166667  0.166667  0.166667      0.025000
  0.111111  0.111111  0.111111      0.025000
  0.055556  0.055556  0.055556      0.025000
  0.000000  0.000000  0.000000      0.025000
  0.000000  0.000000  0.000000      0.025000
  0.111111  0.000000 -0.000000      0.025000
  0.222222  0.000000 -0.000000      0.025000
  0.333333 -0.000000  0.000000      0.025000
  0.444444  0.000000 -0.000000      0.025000
  0.555556 -0.000000  0.000000      0.025000
  0.666667 -0.000000  0.000000      0.025000
  0.777778 -0.000000  0.000000      0.025000
  0.888889  0.000000 -0.000000      0.025000
  1.000000  0.000000  0.000000      0.025000
  1.000000  0.000000  0.000000      0.025000
  1.000000  0.027778  0.027778      0.025000
  1.000000  0.055556  0.055556      0.025000
  1.000000  0.083333  0.083333      0.025000
  1.000000  0.111111  0.111111      0.025000
  1.000000  0.138889  0.138889      0.025000
  1.000000  0.166667  0.166667      0.025000
  1.000000  0.194444  0.194444      0.025000
  1.000000  0.222222  0.222222      0.025000
  1.000000  0.250000  0.250000      0.025000
  0.750000 -0.000000  0.750000      0.025000
  0.666667  0.000000  0.666667      0.025000
  0.583333 -0.000000  0.583333      0.025000
  0.500000  0.000000  0.500000      0.025000
  0.416667  0.000000  0.416667      0.025000
  0.333333 -0.000000  0.333333      0.025000
  0.250000  0.000000  0.250000      0.025000
  0.166667 -0.000000  0.166667      0.025000
  0.083333 -0.000000  0.083333      0.025000
  0.000000 -0.000000  0.000000      0.025000

 SYSTEM =  diamond Si
 POSCAR =  cubic diamond Si

 Startparameter for this run:
   NWRITE =      2    write-flag & timer
   PREC   = normal    normal or accurate (medium, high low for compatibility)
   ISTART =      0    job   : 0-new  1-cont  2-samecut
   ICHARG =     10    charge: 1-file 2-atom 10-const
   ISPIN  =      1    spin polarized calculation?
   LNONCOLLINEAR =      F non collinear calculations
   LSORBIT =      F    spin-orbit coupling
   INIWAV =      1    electr: 0-lowe 1-rand  2-diag
   LASPH  =      F    aspherical Exc in radial PAW
 Electronic Relaxation 1
   ENCUT  =  240.0 eV  17.64 Ry    4.20 a.u.   4.91  4.91  4.91*2*pi/ulx,y,z
   ENINI  =  240.0     initial cutoff
   ENAUG  =  322.1 eV  augmentation charge cutoff
   NELM   =     60;   NELMIN=  2; NELMDL= -5     # of ELM steps
   EDIFF  = 0.1E-03   stopping-criterion for ELM
   LREAL  =      F    real-space projection
   NLSPLINE    = F    spline interpolate recip. space projectors
   LCOMPAT=      F    compatible to vasp.4.4
   GGA_COMPAT  = T    GGA compatible to vasp.4.4-vasp.4.6
   LMAXPAW     = -100 max onsite density
   LMAXMIX     =    2 max onsite mixed and CHGCAR
   VOSKOWN=      0    Vosko Wilk Nusair interpolation
   ROPT   =    0.00000
 Ionic relaxation
   EDIFFG = 0.1E-02   stopping-criterion for IOM
   NSW    =      0    number of steps for IOM
   NBLOCK =      1;   KBLOCK =      1    inner block; outer block
   IBRION =     -1    ionic relax: 0-MD 1-quasi-New 2-CG
   NFREE  =      0    steps in history (QN), initial steepest desc. (CG)
   ISIF   =      2    stress and relaxation
   IWAVPR =     10    prediction:  0-non 1-charg 2-wave 3-comb
   ISYM   =      2    0-nonsym 1-usesym 2-fastsym
   LCORR  =      T    Harris-Foulkes like correction to forces

   POTIM  = 0.5000    time-step for ionic-motion
   TEIN   =    0.0    initial temperature
   TEBEG  =    0.0;   TEEND  =   0.0 temperature during run
   SMASS  =  -3.00    Nose mass-parameter (am)
   estimated Nose-frequenzy (Omega)   =  0.10E-29 period in steps = 0.13E+47 mass=  -0.346E-27a.u.
   SCALEE = 1.0000    scale energy and forces
   NPACO  =    256;   APACO  = 10.0  distance and # of slots for P.C.
   PSTRESS=    0.0 pullay stress

  Mass of Ions in am
   POMASS =  28.09
  Ionic Valenz
   ZVAL   =   4.00
  Atomic Wigner-Seitz radii
  virtual crystal weights
   VCA    =   1.00
   NELECT =       8.0000    total number of electrons
   NUPDOWN=      -1.0000    fix difference up-down

 DOS related values:
   EMIN   =  10.00;   EMAX   =-10.00  energy-range for DOS
   EFERMI =   0.00
   ISMEAR =     0;   SIGMA  =   0.10  broadening in eV -4-tet -1-fermi 0-gaus

 Electronic relaxation 2 (details)
   IALGO  =     38    algorithm
   LDIAG  =      T    sub-space diagonalisation (order eigenvalues)
   LSUBROT=      F    optimize rotation matrix (better conditioning)
   TURBO    =      0    0=normal 1=particle mesh
   IRESTART =      0    0=no restart 2=restart with 2 vectors
   NREBOOT  =      0    no. of reboots
   NMIN     =      0    reboot dimension
   EREF     =   0.00    reference energy to select bands
   IMIX   =      4    mixing-type and parameters
     AMIX     =   0.40;   BMIX     =  1.00
     AMIX_MAG =   1.60;   BMIX_MAG =  1.00
     AMIN     =   0.10
     WC   =   100.;   INIMIX=   1;  MIXPRE=   1;  MAXMIX= -45

 Intra band minimization:
   WEIMIN = 0.0000     energy-eigenvalue tresh-hold
   EBREAK =  0.31E-05  absolut break condition
   DEPER  =   0.30     relativ break condition

   TIME   =   0.40     timestep for ELM

  volume/ion in A,a.u.               =      20.80       140.34
  Fermi-wavevector in a.u.,A,eV,Ry     =   0.944993  1.785779 12.150174  0.893013
  Thomas-Fermi vector in A             =   2.072852

 Write flags
   LWAVE        =      T    write WAVECAR
   LDOWNSAMPLE  =      F    k-point downsampling of WAVECAR
   LCHARG       =      T    write CHGCAR
   LVTOT        =      F    write LOCPOT, total local potential
   LVHAR        =      F    write LOCPOT, Hartree potential only
   LELF         =      F    write electronic localiz. function (ELF)
   LORBIT       =     11    0 simple, 1 ext, 2 COOP (PROOUT), +10 PAW based schemes

 Dipole corrections
   LMONO  =      F    monopole corrections only (constant potential shift)
   LDIPOL =      F    correct potential (dipole corrections)
   IDIPOL =      0    1-x, 2-y, 3-z, 4-all directions
   EPSILON=  1.0000000 bulk dielectric constant

 Exchange correlation treatment:
   GGA     =    --    GGA type
   VOSKOWN =     0    Vosko Wilk Nusair interpolation
   LHFCALC =     F    Hartree Fock is set to
   LHFONE  =     F    Hartree Fock one center treatment
   AEXX    =    0.0000 exact exchange contribution

 Linear response parameters
   LEPSILON=     F    determine dielectric tensor
   LRPA    =     F    only Hartree local field effects (RPA)
   LNABLA  =     F    use nabla operator in PAW spheres
   LVEL    =     F    velocity operator in full k-point grid
   CSHIFT  =0.1000    complex shift for real part using Kramers Kronig
   OMEGAMAX=  -1.0    maximum frequency
   DEG_THRESHOLD= 0.2000000E-02 threshold for treating states as degnerate
   RTIME   =   -0.100 relaxation time in fs
  (WPLASMAI=    0.000 imaginary part of plasma frequency in eV, 0.658/RTIME)
   DFIELD  = 0.0000000 0.0000000 0.0000000 field for delta impulse in time

  Optional k-point grid parameters
   LKPOINTS_OPT  =     F    use optional k-point grid
   KPOINTS_OPT_MODE=     1    mode for optional k-point grid

 Orbital magnetization related:
   ORBITALMAG=     F  switch on orbital magnetization
   LCHIMAG   =     F  perturbation theory with respect to B field
   DQ        =  0.001000  dq finite difference perturbation B field
   LLRAUG    =     F  two centre corrections for induced B field

 Static calculation
 charge density and potential remain constant during run
 non-spin polarized calculation
 Variant of blocked Davidson
 Davidson routine will perform the subspace rotation
 perform sub-space diagonalisation
    after iterative eigenvector-optimisation
 no mixing
 using additional bands            4
 reciprocal scheme for non local part
 use partial core corrections
 calculate Harris-corrections to forces
   (improved forces if not selfconsistent)
 use gradient corrections
 WARNING: stress and forces are not correct
  (second derivative of E(xc) not defined)
 use of overlap-Matrix (Vanderbilt PP)
 Gauss-broadening in eV      SIGMA  =   0.10

  energy-cutoff  :      240.00
  volume of cell :       41.59
      direct lattice vectors                 reciprocal lattice vectors
     0.000000000  2.750000000  2.750000000    -0.181818182  0.181818182  0.181818182
     2.750000000  0.000000000  2.750000000     0.181818182 -0.181818182  0.181818182
     2.750000000  2.750000000  0.000000000     0.181818182  0.181818182 -0.181818182

[...]

 k-points in units of 2pi/SCALE and weight: k-points for bandstructure L-G-X-U K-G
   0.50000000  0.50000000  0.50000000       0.025
   0.44444444  0.44444444  0.44444444       0.025
   0.38888889  0.38888889  0.38888889       0.025
   0.33333333  0.33333333  0.33333333       0.025
   0.27777778  0.27777778  0.27777778       0.025
   0.22222222  0.22222222  0.22222222       0.025
   0.16666667  0.16666667  0.16666667       0.025
   0.11111111  0.11111111  0.11111111       0.025
   0.05555556  0.05555556  0.05555556       0.025
   0.00000000  0.00000000  0.00000000       0.025
   0.00000000  0.00000000  0.00000000       0.025
   0.11111111  0.00000000 -0.00000000       0.025
   0.22222222  0.00000000 -0.00000000       0.025
   0.33333333 -0.00000000  0.00000000       0.025
   0.44444444  0.00000000 -0.00000000       0.025
   0.55555556 -0.00000000  0.00000000       0.025
   0.66666667 -0.00000000  0.00000000       0.025
   0.77777778 -0.00000000  0.00000000       0.025
   0.88888889  0.00000000 -0.00000000       0.025
   1.00000000  0.00000000  0.00000000       0.025
   1.00000000  0.00000000  0.00000000       0.025
   1.00000000  0.02777778  0.02777778       0.025
   1.00000000  0.05555556  0.05555556       0.025
   1.00000000  0.08333333  0.08333333       0.025
   1.00000000  0.11111111  0.11111111       0.025
   1.00000000  0.13888889  0.13888889       0.025
   1.00000000  0.16666667  0.16666667       0.025
   1.00000000  0.19444444  0.19444444       0.025
   1.00000000  0.22222222  0.22222222       0.025
   1.00000000  0.25000000  0.25000000       0.025
   0.75000000  0.00000000  0.75000000       0.025
   0.66666667 -0.00000000  0.66666667       0.025
   0.58333333  0.00000000  0.58333333       0.025
   0.50000000  0.00000000  0.50000000       0.025
   0.41666667  0.00000000  0.41666667       0.025
   0.33333333 -0.00000000  0.33333333       0.025
   0.25000000  0.00000000  0.25000000       0.025
   0.16666667 -0.00000000  0.16666667       0.025
   0.08333333 -0.00000000  0.08333333       0.025
   0.00000000  0.00000000  0.00000000       0.025

 k-points in reciprocal lattice and weights: k-points for bandstructure L-G-X-U K-G
   0.50000000  0.50000000  0.50000000       0.025
   0.44444444  0.44444444  0.44444444       0.025
   0.38888889  0.38888889  0.38888889       0.025
   0.33333333  0.33333333  0.33333333       0.025
   0.27777778  0.27777778  0.27777778       0.025
   0.22222222  0.22222222  0.22222222       0.025
   0.16666667  0.16666667  0.16666667       0.025
   0.11111111  0.11111111  0.11111111       0.025
   0.05555556  0.05555556  0.05555556       0.025
   0.00000000  0.00000000  0.00000000       0.025
   0.00000000  0.00000000  0.00000000       0.025
   0.00000000  0.05555556  0.05555556       0.025
   0.00000000  0.11111111  0.11111111       0.025
   0.00000000  0.16666667  0.16666667       0.025
   0.00000000  0.22222222  0.22222222       0.025
   0.00000000  0.27777778  0.27777778       0.025
   0.00000000  0.33333333  0.33333333       0.025
   0.00000000  0.38888889  0.38888889       0.025
   0.00000000  0.44444444  0.44444444       0.025
   0.00000000  0.50000000  0.50000000       0.025
   0.00000000  0.50000000  0.50000000       0.025
   0.02777778  0.51388889  0.51388889       0.025
   0.05555556  0.52777778  0.52777778       0.025
   0.08333333  0.54166667  0.54166667       0.025
   0.11111111  0.55555556  0.55555556       0.025
   0.13888889  0.56944444  0.56944444       0.025
   0.16666667  0.58333333  0.58333333       0.025
   0.19444444  0.59722222  0.59722222       0.025
   0.22222222  0.61111111  0.61111111       0.025
   0.25000000  0.62500000  0.62500000       0.025
   0.37500000  0.75000000  0.37500000       0.025
   0.33333333  0.66666667  0.33333333       0.025
   0.29166667  0.58333333  0.29166667       0.025
   0.25000000  0.50000000  0.25000000       0.025
   0.20833333  0.41666667  0.20833333       0.025
   0.16666667  0.33333333  0.16666667       0.025
   0.12500000  0.25000000  0.12500000       0.025
   0.08333333  0.16666667  0.08333333       0.025
   0.04166667  0.08333333  0.04166667       0.025
   0.00000000  0.00000000  0.00000000       0.025

 position of ions in fractional coordinates (direct lattice)
   0.87500000  0.87500000  0.87500000
   0.12500000  0.12500000  0.12500000

 position of ions in cartesian coordinates  (Angst):
   4.81250000  4.81250000  4.81250000
   0.68750000  0.68750000  0.68750000

 k-point   1 :   0.5000 0.5000 0.5000  plane waves:     344
 k-point   2 :   0.4444 0.4444 0.4444  plane waves:     356
 k-point   3 :   0.3889 0.3889 0.3889  plane waves:     353
 k-point   4 :   0.3333 0.3333 0.3333  plane waves:     347
 k-point   5 :   0.2778 0.2778 0.2778  plane waves:     350
 k-point   6 :   0.2222 0.2222 0.2222  plane waves:     353
 k-point   7 :   0.1667 0.1667 0.1667  plane waves:     344
 k-point   8 :   0.1111 0.1111 0.1111  plane waves:     335
 k-point   9 :   0.0556 0.0556 0.0556  plane waves:     335
 k-point  10 :   0.0000 0.0000 0.0000  plane waves:     339
 k-point  11 :   0.0000 0.0000 0.0000  plane waves:     339
 k-point  12 :   0.0000 0.0556 0.0556  plane waves:     335
 k-point  13 :   0.0000 0.1111 0.1111  plane waves:     339
 k-point  14 :   0.0000 0.1667 0.1667  plane waves:     351
 k-point  15 :   0.0000 0.2222 0.2222  plane waves:     347
 k-point  16 :   0.0000 0.2778 0.2778  plane waves:     347
 k-point  17 :   0.0000 0.3333 0.3333  plane waves:     343
 k-point  18 :   0.0000 0.3889 0.3889  plane waves:     343
 k-point  19 :   0.0000 0.4444 0.4444  plane waves:     343
 k-point  20 :   0.0000 0.5000 0.5000  plane waves:     342
 k-point  21 :   0.0000 0.5000 0.5000  plane waves:     342
 k-point  22 :   0.0278 0.5139 0.5139  plane waves:     342
 k-point  23 :   0.0556 0.5278 0.5278  plane waves:     346
 k-point  24 :   0.0833 0.5417 0.5417  plane waves:     346
 k-point  25 :   0.1111 0.5556 0.5556  plane waves:     357
 k-point  26 :   0.1389 0.5694 0.5694  plane waves:     357
 k-point  27 :   0.1667 0.5833 0.5833  plane waves:     359
 k-point  28 :   0.1944 0.5972 0.5972  plane waves:     359
 k-point  29 :   0.2222 0.6111 0.6111  plane waves:     359
 k-point  30 :   0.2500 0.6250 0.6250  plane waves:     363
 k-point  31 :   0.3750 0.7500 0.3750  plane waves:     363
 k-point  32 :   0.3333 0.6667 0.3333  plane waves:     353
 k-point  33 :   0.2917 0.5833 0.2917  plane waves:     357
 k-point  34 :   0.2500 0.5000 0.2500  plane waves:     343
 k-point  35 :   0.2083 0.4167 0.2083  plane waves:     351
 k-point  36 :   0.1667 0.3333 0.1667  plane waves:     349
 k-point  37 :   0.1250 0.2500 0.1250  plane waves:     353
 k-point  38 :   0.0833 0.1667 0.0833  plane waves:     339
 k-point  39 :   0.0417 0.0833 0.0417  plane waves:     337
 k-point  40 :   0.0000 0.0000 0.0000  plane waves:     339

 maximum and minimum number of plane-waves per node :       363      335

 maximum number of plane-waves:       363
 maximum index in each direction:
   IXMAX=    4   IYMAX=    4   IZMAX=    4
   IXMIN=   -5   IYMIN=   -5   IZMIN=   -5

 serial   3D FFT for wavefunctions
 parallel 3D FFT for charge:
    minimum data exchange during FFTs selected (reduces bandwidth)

 charge density for first step will be calculated from the start-wavefunctions

 Maximum index for augmentation-charges          805 (set IRDMAX)

 initial charge from wavefunction
 First call to EWALD:  gamma=   0.512
 Maximum number of real-space cells 3x 3x 3
 Maximum number of reciprocal cells 3x 3x 3

--------------------------------------- Iteration      1(   1)  ---------------------------------------

 eigenvalue-minimisations  :   648
 total energy-change (2. order) :-0.1780043E+01  (-0.2104163E+03)
 number of electron       8.0000000 magnetization
 augmentation part       -0.1995876 magnetization

 Free energy of the ion-electron system (eV)
  alpha Z        PSCENC =         3.23732588
  Ewald energy   TEWEN  =      -225.65453461
  -Hartree energ DENC   =        -3.31954979
  -exchange      EXHF   =         0.00000000
  -V(xc)+E(xc)   XCENC  =       -18.86173570
  PAW double counting   =     40644.10306073   -40607.87221542
  entropy T*S    EENTRO =        -0.00185270
  eigenvalues    EBANDS =         0.46790510
  atomic energy  EATOM  =       206.12155316
  Solvation  Ediel_sol  =         0.00000000
  free energy    TOTEN  =        -1.78004335 eV

  energy without entropy =       -1.77819066  energy(sigma->0) =       -1.77911700

[...]

--------------------------------------- Iteration      1(   6)  ---------------------------------------

 eigenvalue-minimisations  :   784
 total energy-change (2. order) :-0.1587301E-07  (-0.1587298E-07)
 number of electron       8.0000000 magnetization
 augmentation part       -0.1995876 magnetization

 Free energy of the ion-electron system (eV)
  alpha Z        PSCENC =         3.23732588
  Ewald energy   TEWEN  =      -225.65453461
  -Hartree energ DENC   =        -3.31954979
  -exchange      EXHF   =         0.00000000
  -V(xc)+E(xc)   XCENC  =       -18.86173570
  PAW double counting   =     40644.10306073   -40607.87221542
  entropy T*S    EENTRO =        -0.00000000
  eigenvalues    EBANDS =       -11.18535643
  atomic energy  EATOM  =       206.12155316
  Solvation  Ediel_sol  =         0.00000000
  free energy    TOTEN  =       -13.43145219 eV

  energy without entropy =      -13.43145219  energy(sigma->0) =      -13.43145219

 average (electrostatic) potential at core
  the test charge radii are     0.9892
  (the norm of the test charge is              1.0000)
       1 -91.2381       2 -91.2381

 E-fermi :   3.2017     XC(G=0):  -9.8101     alpha+bet :-11.5327

 Fermi energy:         3.2016813866

 k-point     1 :       0.5000    0.5000    0.5000
  band No.  band energies     occupation
      1      -6.4785      2.00000
      2      -3.3605      2.00000
      3       1.7747      2.00000
      4       1.7747      2.00000
      5       4.9155      0.00000
      6       7.5854      0.00000
      7       7.5854      0.00000
      8      12.7761      0.00000

[...]

 k-point    40 :       0.0000    0.0000    0.0000
  band No.  band energies     occupation
      1      -8.3933      2.00000
      2       2.7066      2.00000
      3       2.7067      2.00000
      4       2.7067      2.00000
      5       5.0629      0.00000
      6       6.4335      0.00000
      7       6.4335      0.00000
      8       6.4336      0.00000

 soft charge-density along one line, spin component           1
         0         1         2         3         4         5         6         7         8         9
 total charge-density along one line

------------------------ aborting loop because EDIFF is reached ----------------------------------------

 total charge

# of ion       s       p       d       tot
    1        0.762   1.119   0.000   1.880
    2        0.762   1.119   0.000   1.880
tot          1.524   2.237   0.000   3.761

  FORCE on cell =-STRESS in cart. coord.  units (eV):
  Direction    XX          YY          ZZ          XY          YZ          ZX
  Alpha Z     3.23733     3.23733     3.23733
  Ewald     -75.21821   -75.21821   -75.21821     0.00000     0.00000    -0.00000
  Hartree     8.48933     8.48933     8.48933     0.00000     0.00000     0.00000
  E(xc)     -24.51361   -24.51361   -24.51361    -0.00007    -0.00007    -0.00007
  Local     -39.48592   -39.48592   -39.48592     0.00007     0.00007     0.00007
  n-local    88.82465    93.92205    94.79252    -0.80151    -1.11414    -1.72225
  augment   -14.88531   -14.88531   -14.88531    -0.00012    -0.00012    -0.00012
  Kinetic    64.01661    70.86965    71.75288    -1.17673    -1.86757    -2.02042
  Fock        0.00000     0.00000     0.00000     0.00000     0.00000     0.00000
  Total      19.01638    19.01638    19.01638     0.00000     0.00000    -0.00000
  in kB     732.50465   732.50465   732.50465     0.00000     0.00000    -0.00000

 VOLUME and BASIS-vectors are now :
  energy-cutoff  :      240.00
  volume of cell :       41.59
      direct lattice vectors                 reciprocal lattice vectors
     0.000000000  2.750000000  2.750000000    -0.181818182  0.181818182  0.181818182
     2.750000000  0.000000000  2.750000000     0.181818182 -0.181818182  0.181818182
     2.750000000  2.750000000  0.000000000     0.181818182  0.181818182 -0.181818182

  length of vectors
     3.889087297  3.889087297  3.889087297     0.314918329  0.314918329  0.314918329

 FORCES acting on ions
    electron-ion (+dipol)            ewald-force                    non-local-force                 convergence-correction
   0.287E-05 0.287E-05 0.318E-05   -.386E-15 0.509E-15 0.564E-15   -.133E-15 0.304E-15 0.305E-15   0.136E-04 0.136E-04 0.145E-04
   -.287E-05 -.287E-05 -.318E-05   0.608E-15 -.112E-14 -.912E-15   -.226E-16 -.342E-15 -.423E-15   -.136E-04 -.136E-04 -.145E-04
   -.178E-12 -.268E-13 0.686E-13   0.223E-15 -.610E-15 -.348E-15   -.156E-15 -.377E-16 -.118E-15   0.159E-13 0.939E-15 -.584E-14

 POSITION                                       TOTAL-FORCE (eV/Angst)
      4.81250      4.81250      4.81250         0.000000      0.000000      0.000000
      0.68750      0.68750      0.68750        -0.000000     -0.000000     -0.000000
    total drift:                               -0.000000     -0.000000      0.000000

  FREE ENERGIE OF THE ION-ELECTRON SYSTEM (eV)
  free  energy   TOTEN  =       -13.43145219 eV

  energy  without entropy=      -13.43145219  energy(sigma->0) =      -13.43145219

 writing wavefunctions

 total charge

# of ion       s       p       d       tot
    1        0.762   1.119   0.000   1.880
    2        0.762   1.119   0.000   1.880
tot          1.524   2.237   0.000   3.761