 vasp.6.3.0 20Jan22 (build Feb 01 2022 16:52:37) complex

 executed on           TETRA_NSC1 date 2022.02.23  07:07:24

 INCAR:
   SYSTEM = diamond Si
   ISTART = 0
   ICHARG = 2
   ENCUT = 240
   ISMEAR = 0
   SIGMA = 0.1

 POTCAR:    PAW_PBE Si 05Jan2001
 POTCAR:    PAW_PBE Si 05Jan2001
   VRHFIN =Si: s2p2

   TITEL  = PAW_PBE Si 05Jan2001
   POMASS =   28.085; ZVAL   =    4.000    mass and valenz
   ENMAX  =  245.345; ENMIN  =  184.009 eV

  PAW_PBE Si 05Jan2001                  :

 POSCAR: cubic diamond Si
  positions in direct lattice
 exchange correlation table for  LEXCH =        8
   RHO(1)=    0.500       N(1)  =     2000
   RHO(2)=  100.500       N(2)  =     4000

 ion  position               nearest neighbor table
   1  0.875  0.875  0.875-   2 2.21   2 2.21   2 2.21   2 2.21
   2  0.125  0.125  0.125-   1 2.21   1 2.21   1 2.21   1 2.21

  LATTYP: Found a face centered cubic cell.
 ALAT       =     5.1000000000

  Lattice vectors:

 A1 = (   0.0000000000,   2.5500000000,   2.5500000000)
 A2 = (   2.5500000000,   0.0000000000,   2.5500000000)
 A3 = (   2.5500000000,   2.5500000000,   0.0000000000)

Analysis of symmetry for initial positions (statically):
 Subroutine PRICEL returns:
 Original cell was already a primitive cell.

 Routine SETGRP: Setting up the symmetry group for a
 face centered cubic supercell.

 Subroutine GETGRP returns: Found 48 space group operations
 (whereof 12 operations were pure point group operations)
 out of a pool of 48 trial point group operations.

The static configuration has the point symmetry D_3d.
 The point group associated with its full space group is O_h .

Analysis of symmetry for dynamics (positions and initial velocities):
 Subroutine PRICEL returns:
 Original cell was already a primitive cell.

 Routine SETGRP: Setting up the symmetry group for a
 face centered cubic supercell.

 Subroutine GETGRP returns: Found 48 space group operations
 (whereof 12 operations were pure point group operations)
 out of a pool of 48 trial point group operations.

The dynamic configuration has the point symmetry D_3d.
 The point group associated with its full space group is O_h .

 Subroutine INISYM returns: Found 48 space group operations
 (whereof 12 operations are pure point group operations),
 and found     1 'primitive' translations

                                     Primitive cell

  volume of cell :      33.1627

  direct lattice vectors                    reciprocal lattice vectors
     0.000000000  2.550000000  2.550000000    -0.196078431  0.196078431  0.196078431
     2.550000000  0.000000000  2.550000000     0.196078431 -0.196078431  0.196078431
     2.550000000  2.550000000  0.000000000     0.196078431  0.196078431 -0.196078431

  length of vectors
     3.606244584  3.606244584  3.606244584     0.339617805  0.339617805  0.339617805

  position of ions in fractional coordinates (direct lattice)
     0.875000000  0.875000000  0.875000000
     0.125000000  0.125000000  0.125000000

  ion indices of the primitive-cell ions
   primitive index   ion index
                 1           1
                 2           2

 KPOINTS: k-points

Automatic generation of k-mesh.
 Grid dimensions read from file:
 generate k-points for:   11   11   11

 Generating k-lattice:

  Cartesian coordinates                     Fractional coordinates (reciprocal lattice)
    -0.017825312  0.017825312  0.017825312     0.090909091 -0.000000000  0.000000000
     0.017825312 -0.017825312  0.017825312    -0.000000000  0.090909091 -0.000000000
     0.017825312  0.017825312 -0.017825312     0.000000000  0.000000000  0.090909091

  Length of vectors
     0.030874346  0.030874346  0.030874346

  Shift w.r.t. Gamma in fractional coordinates (k-lattice)
     0.000000000  0.000000000  0.000000000

 Subroutine IBZKPT returns following result:

 Found     56 irreducible k-points:

 Following reciprocal coordinates:
            Coordinates               Weight
  0.000000  0.000000  0.000000      1.000000
  0.090909 -0.000000  0.000000      8.000000
  0.181818 -0.000000  0.000000      8.000000
  0.272727  0.000000 -0.000000      8.000000
  0.363636  0.000000 -0.000000      8.000000
  0.454545  0.000000 -0.000000      8.000000
  0.090909  0.090909 -0.000000      6.000000
  0.181818  0.090909 -0.000000     24.000000
  0.272727  0.090909 -0.000000     24.000000
  0.363636  0.090909 -0.000000     24.000000
  0.454545  0.090909 -0.000000     24.000000
 -0.454545  0.090909 -0.000000     24.000000
 -0.363636  0.090909  0.000000     24.000000
 -0.272727  0.090909  0.000000     24.000000
 -0.181818  0.090909 -0.000000     24.000000
 -0.090909  0.090909 -0.000000     12.000000
  0.181818  0.181818 -0.000000      6.000000
  0.272727  0.181818 -0.000000     24.000000
  0.363636  0.181818 -0.000000     24.000000
  0.454545  0.181818 -0.000000     24.000000
 -0.454545  0.181818 -0.000000     24.000000
 -0.363636  0.181818  0.000000     24.000000
 -0.272727  0.181818 -0.000000     24.000000
 -0.181818  0.181818 -0.000000     12.000000
  0.272727  0.272727 -0.000000      6.000000
  0.363636  0.272727 -0.000000     24.000000
  0.454545  0.272727 -0.000000     24.000000
 -0.454545  0.272727  0.000000     24.000000
 -0.363636  0.272727  0.000000     24.000000
 -0.272727  0.272727  0.000000     12.000000
  0.363636  0.363636 -0.000000      6.000000
  0.454545  0.363636 -0.000000     24.000000
 -0.454545  0.363636  0.000000     24.000000
 -0.363636  0.363636  0.000000     12.000000
  0.454545  0.454545 -0.000000      6.000000
 -0.454545  0.454545  0.000000     12.000000
  0.272727  0.181818  0.090909     24.000000
  0.363636  0.181818  0.090909     48.000000
  0.454545  0.181818  0.090909     48.000000
 -0.454545  0.181818  0.090909     48.000000
  0.363636  0.272727  0.090909     24.000000
  0.454545  0.272727  0.090909     48.000000
 -0.454545  0.272727  0.090909     48.000000
 -0.363636  0.272727  0.090909     48.000000
 -0.272727  0.272727  0.090909     48.000000
 -0.181818  0.272727  0.090909     24.000000
  0.454545  0.363636  0.090909     24.000000
 -0.454545  0.363636  0.090909     48.000000
 -0.363636  0.363636  0.090909     48.000000
 -0.272727  0.363636  0.090909     24.000000
 -0.454545  0.454545  0.090909     24.000000
 -0.363636  0.454545  0.090909     24.000000
 -0.454545  0.363636  0.181818     24.000000
 -0.363636  0.363636  0.181818     48.000000
 -0.363636  0.454545  0.181818     24.000000
 -0.272727  0.454545  0.181818     24.000000

 Following cartesian coordinates:
            Coordinates               Weight
  0.000000  0.000000  0.000000      1.000000
 -0.090909  0.090909  0.090909      8.000000
 -0.181818  0.181818  0.181818      8.000000
 -0.272727  0.272727  0.272727      8.000000
 -0.363636  0.363636  0.363636      8.000000
 -0.454545  0.454545  0.454545      8.000000
  0.000000 -0.000000  0.181818      6.000000
 -0.090909  0.090909  0.272727     24.000000
 -0.181818  0.181818  0.363636     24.000000
 -0.272727  0.272727  0.454545     24.000000
 -0.363636  0.363636  0.545455     24.000000
  0.545455 -0.545455 -0.363636     24.000000
  0.454545 -0.454545 -0.272727     24.000000
  0.363636 -0.363636 -0.181818     24.000000
  0.272727 -0.272727 -0.090909     24.000000
  0.181818 -0.181818 -0.000000     12.000000
 -0.000000  0.000000  0.363636      6.000000
 -0.090909  0.090909  0.454545     24.000000
 -0.181818  0.181818  0.545455     24.000000
 -0.272727  0.272727  0.636364     24.000000
  0.636364 -0.636364 -0.272727     24.000000
  0.545455 -0.545455 -0.181818     24.000000
  0.454545 -0.454545 -0.090909     24.000000
  0.363636 -0.363636 -0.000000     12.000000
 -0.000000  0.000000  0.545455      6.000000
 -0.090909  0.090909  0.636364     24.000000
 -0.181818  0.181818  0.727273     24.000000
  0.727273 -0.727273 -0.181818     24.000000
  0.636364 -0.636364 -0.090909     24.000000
  0.545455 -0.545455 -0.000000     12.000000
 -0.000000 -0.000000  0.727273      6.000000
 -0.090909  0.090909  0.818182     24.000000
  0.818182 -0.818182 -0.090909     24.000000
  0.727273 -0.727273 -0.000000     12.000000
 -0.000000  0.000000  0.909091      6.000000
  0.909091 -0.909091 -0.000000     12.000000
  0.000000  0.181818  0.363636     24.000000
 -0.090909  0.272727  0.454545     48.000000
 -0.181818  0.363636  0.545455     48.000000
  0.727273 -0.545455 -0.363636     48.000000
 -0.000000  0.181818  0.545455     24.000000
 -0.090909  0.272727  0.636364     48.000000
  0.818182 -0.636364 -0.272727     48.000000
  0.727273 -0.545455 -0.181818     48.000000
  0.636364 -0.454545 -0.090909     48.000000
  0.545455 -0.363636  0.000000     24.000000
  0.000000  0.181818  0.727273     24.000000
  0.909091 -0.727273 -0.181818     48.000000
  0.818182 -0.636364 -0.090909     48.000000
  0.727273 -0.545455 -0.000000     24.000000
  1.000000 -0.818182 -0.090909     24.000000
  0.909091 -0.727273 -0.000000     24.000000
  1.000000 -0.636364 -0.272727     24.000000
  0.909091 -0.545455 -0.181818     48.000000
  1.000000 -0.636364 -0.090909     24.000000
  0.909091 -0.545455  0.000000     24.000000

 SYSTEM =  diamond Si
 POSCAR =  cubic diamond Si

 Startparameter for this run:
   NWRITE =      2    write-flag & timer
   PREC   = normal    normal or accurate (medium, high low for compatibility)
   ISTART =      0    job   : 0-new  1-cont  2-samecut
   ICHARG =      2    charge: 1-file 2-atom 10-const
   ISPIN  =      1    spin polarized calculation?
   LNONCOLLINEAR =      F non collinear calculations
   LSORBIT =      F    spin-orbit coupling
   INIWAV =      1    electr: 0-lowe 1-rand  2-diag
   LASPH  =      F    aspherical Exc in radial PAW
 Electronic Relaxation 1
   ENCUT  =  240.0 eV  17.64 Ry    4.20 a.u.   4.56  4.56  4.56*2*pi/ulx,y,z
   ENINI  =  240.0     initial cutoff
   ENAUG  =  322.1 eV  augmentation charge cutoff
   NELM   =     60;   NELMIN=  2; NELMDL= -5     # of ELM steps
   EDIFF  = 0.1E-03   stopping-criterion for ELM
   LREAL  =      F    real-space projection
   NLSPLINE    = F    spline interpolate recip. space projectors
   LCOMPAT=      F    compatible to vasp.4.4
   GGA_COMPAT  = T    GGA compatible to vasp.4.4-vasp.4.6
   LMAXPAW     = -100 max onsite density
   LMAXMIX     =    2 max onsite mixed and CHGCAR
   VOSKOWN=      0    Vosko Wilk Nusair interpolation
   ROPT   =    0.00000
 Ionic relaxation
   EDIFFG = 0.1E-02   stopping-criterion for IOM
   NSW    =      0    number of steps for IOM
   NBLOCK =      1;   KBLOCK =      1    inner block; outer block
   IBRION =     -1    ionic relax: 0-MD 1-quasi-New 2-CG
   NFREE  =      0    steps in history (QN), initial steepest desc. (CG)
   ISIF   =      2    stress and relaxation
   IWAVPR =     10    prediction:  0-non 1-charg 2-wave 3-comb
   ISYM   =      2    0-nonsym 1-usesym 2-fastsym
   LCORR  =      T    Harris-Foulkes like correction to forces

   POTIM  = 0.5000    time-step for ionic-motion
   TEIN   =    0.0    initial temperature
   TEBEG  =    0.0;   TEEND  =   0.0 temperature during run
   SMASS  =  -3.00    Nose mass-parameter (am)
   estimated Nose-frequenzy (Omega)   =  0.10E-29 period in steps = 0.13E+47 mass=  -0.297E-27a.u.
   SCALEE = 1.0000    scale energy and forces
[...]
  -0.36363636  0.36363636  0.36363636       0.006
  -0.45454545  0.45454545  0.45454545       0.006
   0.00000000 -0.00000000  0.18181818       0.005
  -0.09090909  0.09090909  0.27272727       0.018
  -0.18181818  0.18181818  0.36363636       0.018
  -0.27272727  0.27272727  0.45454545       0.018
  -0.36363636  0.36363636  0.54545455       0.018
   0.54545455 -0.54545455 -0.36363636       0.018
   0.45454545 -0.45454545 -0.27272727       0.018
   0.36363636 -0.36363636 -0.18181818       0.018
   0.27272727 -0.27272727 -0.09090909       0.018
   0.18181818 -0.18181818 -0.00000000       0.009
  -0.00000000  0.00000000  0.36363636       0.005
  -0.09090909  0.09090909  0.45454545       0.018
  -0.18181818  0.18181818  0.54545455       0.018
  -0.27272727  0.27272727  0.63636364       0.018
   0.63636364 -0.63636364 -0.27272727       0.018
   0.54545455 -0.54545455 -0.18181818       0.018
   0.45454545 -0.45454545 -0.09090909       0.018
   0.36363636 -0.36363636 -0.00000000       0.009
  -0.00000000  0.00000000  0.54545455       0.005
  -0.09090909  0.09090909  0.63636364       0.018
  -0.18181818  0.18181818  0.72727273       0.018
   0.72727273 -0.72727273 -0.18181818       0.018
   0.63636364 -0.63636364 -0.09090909       0.018
   0.54545455 -0.54545455 -0.00000000       0.009
  -0.00000000 -0.00000000  0.72727273       0.005
  -0.09090909  0.09090909  0.81818182       0.018
   0.81818182 -0.81818182 -0.09090909       0.018
   0.72727273 -0.72727273 -0.00000000       0.009
  -0.00000000  0.00000000  0.90909091       0.005
   0.90909091 -0.90909091 -0.00000000       0.009
   0.00000000  0.18181818  0.36363636       0.018
  -0.09090909  0.27272727  0.45454545       0.036
  -0.18181818  0.36363636  0.54545455       0.036
   0.72727273 -0.54545455 -0.36363636       0.036
  -0.00000000  0.18181818  0.54545455       0.018
  -0.09090909  0.27272727  0.63636364       0.036
   0.81818182 -0.63636364 -0.27272727       0.036
   0.72727273 -0.54545455 -0.18181818       0.036
   0.63636364 -0.45454545 -0.09090909       0.036
   0.54545455 -0.36363636  0.00000000       0.018
   0.00000000  0.18181818  0.72727273       0.018
   0.90909091 -0.72727273 -0.18181818       0.036
   0.81818182 -0.63636364 -0.09090909       0.036
   0.72727273 -0.54545455 -0.00000000       0.018
   1.00000000 -0.81818182 -0.09090909       0.018
   0.90909091 -0.72727273 -0.00000000       0.018
   1.00000000 -0.63636364 -0.27272727       0.018
   0.90909091 -0.54545455 -0.18181818       0.036
   1.00000000 -0.63636364 -0.09090909       0.018
   0.90909091 -0.54545455  0.00000000       0.018

 k-points in reciprocal lattice and weights: k-points
   0.00000000  0.00000000  0.00000000       0.001
   0.09090909 -0.00000000  0.00000000       0.006
   0.18181818 -0.00000000  0.00000000       0.006
   0.27272727  0.00000000 -0.00000000       0.006
   0.36363636  0.00000000 -0.00000000       0.006
   0.45454545  0.00000000 -0.00000000       0.006
   0.09090909  0.09090909 -0.00000000       0.005
   0.18181818  0.09090909 -0.00000000       0.018
   0.27272727  0.09090909 -0.00000000       0.018
   0.36363636  0.09090909 -0.00000000       0.018
   0.45454545  0.09090909 -0.00000000       0.018
  -0.45454545  0.09090909 -0.00000000       0.018
  -0.36363636  0.09090909  0.00000000       0.018
  -0.27272727  0.09090909  0.00000000       0.018
  -0.18181818  0.09090909 -0.00000000       0.018
  -0.09090909  0.09090909 -0.00000000       0.009
   0.18181818  0.18181818 -0.00000000       0.005
   0.27272727  0.18181818 -0.00000000       0.018
   0.36363636  0.18181818 -0.00000000       0.018
   0.45454545  0.18181818 -0.00000000       0.018
  -0.45454545  0.18181818 -0.00000000       0.018
  -0.36363636  0.18181818  0.00000000       0.018
  -0.27272727  0.18181818 -0.00000000       0.018
  -0.18181818  0.18181818 -0.00000000       0.009
   0.27272727  0.27272727 -0.00000000       0.005
   0.36363636  0.27272727 -0.00000000       0.018
   0.45454545  0.27272727 -0.00000000       0.018
  -0.45454545  0.27272727  0.00000000       0.018
  -0.36363636  0.27272727  0.00000000       0.018
  -0.27272727  0.27272727  0.00000000       0.009
   0.36363636  0.36363636 -0.00000000       0.005
   0.45454545  0.36363636 -0.00000000       0.018
  -0.45454545  0.36363636  0.00000000       0.018
  -0.36363636  0.36363636  0.00000000       0.009
   0.45454545  0.45454545 -0.00000000       0.005
  -0.45454545  0.45454545  0.00000000       0.009
   0.27272727  0.18181818  0.09090909       0.018
   0.36363636  0.18181818  0.09090909       0.036
   0.45454545  0.18181818  0.09090909       0.036
  -0.45454545  0.18181818  0.09090909       0.036
   0.36363636  0.27272727  0.09090909       0.018
   0.45454545  0.27272727  0.09090909       0.036
  -0.45454545  0.27272727  0.09090909       0.036
  -0.36363636  0.27272727  0.09090909       0.036
  -0.27272727  0.27272727  0.09090909       0.036
  -0.18181818  0.27272727  0.09090909       0.018
   0.45454545  0.36363636  0.09090909       0.018
  -0.45454545  0.36363636  0.09090909       0.036
  -0.36363636  0.36363636  0.09090909       0.036
  -0.27272727  0.36363636  0.09090909       0.018
  -0.45454545  0.45454545  0.09090909       0.018
  -0.36363636  0.45454545  0.09090909       0.018
  -0.45454545  0.36363636  0.18181818       0.018
  -0.36363636  0.36363636  0.18181818       0.036
  -0.36363636  0.45454545  0.18181818       0.018
  -0.27272727  0.45454545  0.18181818       0.018

 position of ions in fractional coordinates (direct lattice)
   0.87500000  0.87500000  0.87500000
   0.12500000  0.12500000  0.12500000

 position of ions in cartesian coordinates  (Angst):
   4.46250000  4.46250000  4.46250000
   0.63750000  0.63750000  0.63750000

 k-point   1 :   0.0000 0.0000 0.0000  plane waves:     283
 k-point   2 :   0.0909-0.0000 0.0000  plane waves:     286
 k-point   3 :   0.1818-0.0000 0.0000  plane waves:     283
 k-point   4 :   0.2727 0.0000-0.0000  plane waves:     286
 k-point   5 :   0.3636 0.0000-0.0000  plane waves:     281
 k-point   6 :   0.4545 0.0000-0.0000  plane waves:     269
 k-point   7 :   0.0909 0.0909-0.0000  plane waves:     283
 k-point   8 :   0.1818 0.0909-0.0000  plane waves:     286
 k-point   9 :   0.2727 0.0909-0.0000  plane waves:     288
 k-point  10 :   0.3636 0.0909-0.0000  plane waves:     281
 k-point  11 :   0.4545 0.0909-0.0000  plane waves:     275
 k-point  12 :  -0.4545 0.0909-0.0000  plane waves:     272
 k-point  13 :  -0.3636 0.0909 0.0000  plane waves:     277
 k-point  14 :  -0.2727 0.0909 0.0000  plane waves:     288
 k-point  15 :  -0.1818 0.0909-0.0000  plane waves:     284
 k-point  16 :  -0.0909 0.0909-0.0000  plane waves:     285
 k-point  17 :   0.1818 0.1818-0.0000  plane waves:     291
 k-point  18 :   0.2727 0.1818-0.0000  plane waves:     290
 k-point  19 :   0.3636 0.1818-0.0000  plane waves:     285
 k-point  20 :   0.4545 0.1818-0.0000  plane waves:     278
 k-point  21 :  -0.4545 0.1818-0.0000  plane waves:     275
 k-point  22 :  -0.3636 0.1818 0.0000  plane waves:     278
 k-point  23 :  -0.2727 0.1818-0.0000  plane waves:     281
 k-point  24 :  -0.1818 0.1818-0.0000  plane waves:     285
 k-point  25 :   0.2727 0.2727-0.0000  plane waves:     290
 k-point  26 :   0.3636 0.2727-0.0000  plane waves:     284
 k-point  27 :   0.4545 0.2727-0.0000  plane waves:     279
 k-point  28 :  -0.4545 0.2727 0.0000  plane waves:     278
 k-point  29 :  -0.3636 0.2727 0.0000  plane waves:     278
 k-point  30 :  -0.2727 0.2727 0.0000  plane waves:     279
 k-point  31 :   0.3636 0.3636-0.0000  plane waves:     278
 k-point  32 :   0.4545 0.3636-0.0000  plane waves:     279
 k-point  33 :  -0.4545 0.3636 0.0000  plane waves:     278
 k-point  34 :  -0.3636 0.3636 0.0000  plane waves:     276
 k-point  35 :   0.4545 0.4545-0.0000  plane waves:     286
 k-point  36 :  -0.4545 0.4545 0.0000  plane waves:     280
 k-point  37 :   0.2727 0.1818 0.0909  plane waves:     288
 k-point  38 :   0.3636 0.1818 0.0909  plane waves:     284
 k-point  39 :   0.4545 0.1818 0.0909  plane waves:     280
 k-point  40 :  -0.4545 0.1818 0.0909  plane waves:     279
 k-point  41 :   0.3636 0.2727 0.0909  plane waves:     287
 k-point  42 :   0.4545 0.2727 0.0909  plane waves:     277
 k-point  43 :  -0.4545 0.2727 0.0909  plane waves:     281
 k-point  44 :  -0.3636 0.2727 0.0909  plane waves:     276
 k-point  45 :  -0.2727 0.2727 0.0909  plane waves:     278
 k-point  46 :  -0.1818 0.2727 0.0909  plane waves:     276
 k-point  47 :   0.4545 0.3636 0.0909  plane waves:     281
 k-point  48 :  -0.4545 0.3636 0.0909  plane waves:     284
 k-point  49 :  -0.3636 0.3636 0.0909  plane waves:     276
 k-point  50 :  -0.2727 0.3636 0.0909  plane waves:     278
 k-point  51 :  -0.4545 0.4545 0.0909  plane waves:     276
 k-point  52 :  -0.3636 0.4545 0.0909  plane waves:     278
 k-point  53 :  -0.4545 0.3636 0.1818  plane waves:     281
 k-point  54 :  -0.3636 0.3636 0.1818  plane waves:     275
 k-point  55 :  -0.3636 0.4545 0.1818  plane waves:     277
 k-point  56 :  -0.2727 0.4545 0.1818  plane waves:     272

 maximum and minimum number of plane-waves per node :       291      269

 maximum number of plane-waves:       291
 maximum index in each direction:
   IXMAX=    5   IYMAX=    4   IZMAX=    4
   IXMIN=   -4   IYMIN=   -4   IZMIN=   -4

 serial   3D FFT for wavefunctions
 parallel 3D FFT for charge:
    minimum data exchange during FFTs selected (reduces bandwidth)

 Broyden mixing: mesh for mixing (old mesh)
   NGX =  9   NGY =  9   NGZ =  9
  (NGX  = 28   NGY  = 28   NGZ  = 28)
  gives a total of    729 points

 initial charge density was supplied:
 charge density of overlapping atoms calculated
 number of electron       8.0000000 magnetization
 keeping initial charge density in first step

 Maximum index for augmentation-charges          695 (set IRDMAX)

 First call to EWALD:  gamma=   0.552
 Maximum number of real-space cells 3x 3x 3
 Maximum number of reciprocal cells 3x 3x 3

--------------------------------------- Iteration      1(   1)  ---------------------------------------

 eigenvalue-minimisations  :   912
 total energy-change (2. order) :-0.1991226E+01  (-0.2147881E+03)
 number of electron       8.0000000 magnetization
 augmentation part        8.0000000 magnetization

 Free energy of the ion-electron system (eV)
  alpha Z        PSCENC =         4.06035456
  Ewald energy   TEWEN  =      -243.35292948
  -Hartree energ DENC   =        -8.36381138
  -exchange      EXHF   =         0.00000000
  -V(xc)+E(xc)   XCENC  =       -17.82043379
  PAW double counting   =       176.24759923     -141.06103558
  entropy T*S    EENTRO =        -0.00263766
  eigenvalues    EBANDS =        22.18011504
  atomic energy  EATOM  =       206.12155316
  Solvation  Ediel_sol  =         0.00000000
  free energy    TOTEN  =        -1.99122590 eV

  energy without entropy =       -1.98858824  energy(sigma->0) =       -1.98990707

[...]

 Broyden mixing:
  rms(total) = 0.69882E+00    rms(broyden)= 0.69881E+00
  rms(prec ) = 0.12237E+01
  weight for this iteration     100.00

[...]

 eigenvalue-minimisations  :  1024
 total energy-change (2. order) : 0.2232266E+00  (-0.1615047E-01)
 number of electron       8.0000016 magnetization
 augmentation part       -0.4769462 magnetization

[...]

 eigenvalues of (default mixing * dielectric matrix)
  average eigenvalue GAMMA=   2.6515
  2.6515

[...]

 eigenvalue-minimisations  :  1136
 total energy-change (2. order) : 0.9038402E-01  (-0.2689928E-01)
 number of electron       8.0000016 magnetization
 augmentation part       -0.4666587 magnetization

[...]

 Broyden mixing:
  rms(total) = 0.70264E-02    rms(broyden)= 0.70264E-02
  rms(prec ) = 0.80053E-02
  weight for this iteration     100.00

 eigenvalues of (default mixing * dielectric matrix)
  average eigenvalue GAMMA=   2.1120
  0.9347  2.5913  2.5913  2.3310

[...]

--------------------------------------- Iteration      1(  10)  ---------------------------------------

 eigenvalue-minimisations  :   568
 total energy-change (2. order) :-0.2100862E-04  (-0.2890879E-05)
 number of electron       8.0000016 magnetization
 augmentation part       -0.4681184 magnetization

 Free energy of the ion-electron system (eV)
  alpha Z        PSCENC =         4.06035456
  Ewald energy   TEWEN  =      -243.35292948
  -Hartree energ DENC   =       -12.74350597
  -exchange      EXHF   =         0.00000000
  -V(xc)+E(xc)   XCENC  =       -17.05247975
  PAW double counting   =      1620.49598900    -1585.74576818
  entropy T*S    EENTRO =        -0.00018091
  eigenvalues    EBANDS =        17.98312979
  atomic energy  EATOM  =       206.12155316
  Solvation  Ediel_sol  =         0.00000000
  free energy    TOTEN  =       -10.23383779 eV

  energy without entropy =      -10.23365688  energy(sigma->0) =      -10.23374734

 average (electrostatic) potential at core
  the test charge radii are     0.9892
  (the norm of the test charge is              1.0000)
       1 -81.0104       2 -81.0104

 E-fermi :   7.9953     XC(G=0): -10.1661     alpha+bet :-14.4647

 Fermi energy:         7.9952953084

 k-point     1 :       0.0000    0.0000    0.0000
  band No.  band energies     occupation
      1      -5.4599      2.00000
      2       7.9246      1.68255
      3       7.9246      1.68239
      4       7.9246      1.68239
      5      10.5506      0.00000
      6      10.5506      0.00000
      7      10.5506      0.00000
      8      13.5840      0.00000

[...]

 k-point    56 :      -0.2727    0.4545    0.1818
  band No.  band energies     occupation
      1      -0.7508      2.00000
      2       0.0665      2.00000
      3       2.8538      2.00000
      4       3.7220      2.00000
      5      11.2560      0.00000
      6      12.5869      0.00000
      7      13.8296      0.00000
      8      14.0048      0.00000

 soft charge-density along one line, spin component           1
         0         1         2         3         4         5         6         7         8         9
 total charge-density along one line

------------------------ aborting loop because EDIFF is reached ----------------------------------------

  FORCE on cell =-STRESS in cart. coord.  units (eV):
  Direction    XX          YY          ZZ          XY          YZ          ZX
  Alpha Z     4.06035     4.06035     4.06035
  Ewald     -81.11768   -81.11768   -81.11768    -0.00000     0.00000    -0.00000
  Hartree     4.24740     4.24740     4.24740    -0.00000    -0.00000    -0.00000
  E(xc)     -26.59355   -26.59355   -26.59355     0.00000     0.00000     0.00000
  Local     -27.03151   -27.03151   -27.03151     0.00006     0.00005     0.00005
  n-local    83.72666    85.18833    79.13163     2.70898    -1.64475     0.73751
  augment   -11.80440   -11.80440   -11.80440    -0.00007    -0.00007    -0.00007
  Kinetic    63.77057    59.24197    61.35880     3.59906    -0.29374     1.09545
  Fock        0.00000     0.00000     0.00000     0.00000     0.00000     0.00000
  Total       5.89993     5.89993     5.89993    -0.00000    -0.00000    -0.00000
  in kB     285.04094   285.04094   285.04094    -0.00000    -0.00000    -0.00000

 VOLUME and BASIS-vectors are now :
  energy-cutoff  :      240.00
  volume of cell :       33.16
      direct lattice vectors                 reciprocal lattice vectors
     0.000000000  2.550000000  2.550000000    -0.196078431  0.196078431  0.196078431
     2.550000000  0.000000000  2.550000000     0.196078431 -0.196078431  0.196078431
     2.550000000  2.550000000  0.000000000     0.196078431  0.196078431 -0.196078431

  length of vectors
     3.606244584  3.606244584  3.606244584     0.339617805  0.339617805  0.339617805

 FORCES acting on ions
    electron-ion (+dipol)            ewald-force                    non-local-force                 convergence-correction
   0.673E-05 0.673E-05 0.635E-05   0.255E-14 -.177E-14 0.170E-14   0.656E-16 0.107E-15 0.762E-16   0.526E-06 0.526E-06 0.526E-06
   -.673E-05 -.673E-05 -.635E-05   -.285E-14 0.220E-14 -.116E-14   -.675E-16 -.328E-16 -.420E-16   -.526E-06 -.526E-06 -.526E-06
   0.702E-13 -.488E-13 -.148E-13   -.303E-15 0.430E-15 0.542E-15   -.195E-17 0.744E-16 0.342E-16   -.108E-14 0.143E-14 0.931E-15

 POSITION                                       TOTAL-FORCE (eV/Angst)
      4.46250      4.46250      4.46250         0.000000      0.000000      0.000000
      0.63750      0.63750      0.63750        -0.000000     -0.000000     -0.000000
    total drift:                                0.000000     -0.000000     -0.000000

  FREE ENERGIE OF THE ION-ELECTRON SYSTEM (eV)
  free  energy   TOTEN  =       -10.23383779 eV

  energy  without entropy=      -10.23365688  energy(sigma->0) =      -10.23374734

 writing wavefunctions