 vasp.6.3.0 20Jan22 (build Feb 01 2022 16:52:37) complex

 executed on           TETRA_NSC1 date 2022.02.23  15:19:09

 INCAR:
   SYSTEM = fcc Ni
   ISTART = 0
   ICHARG = 2
   ENCUT = 270
   ISMEAR = 1
   SIGMA = 0.2
   LORBIT = 11
   ISPIN = 2
   MAGMOM = 1

 POTCAR:    PAW_PBE Ni 02Aug2007
 POTCAR:    PAW_PBE Ni 02Aug2007
   VRHFIN =Ni:

   TITEL  = PAW_PBE Ni 02Aug2007
   POMASS =   58.690; ZVAL   =   10.000    mass and valenz
   ENMAX  =  269.532; ENMIN  =  202.149 eV

  PAW_PBE Ni 02Aug2007                  :

 POSCAR: fcc Ni
  positions in cartesian coordinates
 exchange correlation table for  LEXCH =        8
   RHO(1)=    0.500       N(1)  =     2000
   RHO(2)=  100.500       N(2)  =     4000

 ion  position               nearest neighbor table
   1  0.000  0.000  0.000-

  LATTYP: Found a face centered cubic cell.
 ALAT       =     3.0000000000

  Lattice vectors:

 A1 = (   1.5000000000,   1.5000000000,   0.0000000000)
 A2 = (   0.0000000000,   1.5000000000,   1.5000000000)
 A3 = (   1.5000000000,   0.0000000000,   1.5000000000)

Analysis of symmetry for initial positions (statically):
 Subroutine PRICEL returns:
 Original cell was already a primitive cell.

 Routine SETGRP: Setting up the symmetry group for a
 face centered cubic supercell.

 Subroutine GETGRP returns: Found 48 space group operations
 (whereof 48 operations were pure point group operations)
 out of a pool of 48 trial point group operations.

The static configuration has the point symmetry O_h .

Analysis of symmetry for dynamics (positions and initial velocities):
 Subroutine PRICEL returns:
 Original cell was already a primitive cell.

[...]

The dynamic configuration has the point symmetry O_h .

Analysis of structural, dynamic, and magnetic symmetry:
 Subroutine PRICEL returns:
 Original cell was already a primitive cell.

 Routine SETGRP: Setting up the symmetry group for a
 face centered cubic supercell.

 Subroutine GETGRP returns: Found 48 space group operations
 (whereof 48 operations were pure point group operations)
 out of a pool of 48 trial point group operations.

The overall configuration has the point symmetry O_h .

 Subroutine INISYM returns: Found 48 space group operations
 (whereof 48 operations are pure point group operations),
 and found     1 'primitive' translations

                                     Primitive cell

  volume of cell :       6.7500

  direct lattice vectors                    reciprocal lattice vectors
     1.500000000  1.500000000  0.000000000     0.333333333  0.333333333 -0.333333333
     0.000000000  1.500000000  1.500000000    -0.333333333  0.333333333  0.333333333
     1.500000000  0.000000000  1.500000000     0.333333333 -0.333333333  0.333333333

  length of vectors
     2.121320344  2.121320344  2.121320344     0.577350269  0.577350269  0.577350269

  position of ions in fractional coordinates (direct lattice)
     0.000000000  0.000000000  0.000000000

  ion indices of the primitive-cell ions
   primitive index   ion index
                 1           1

 KPOINTS: k-points

Automatic generation of k-mesh.
 Grid dimensions read from file:
 generate k-points for:   11   11   11

 Generating k-lattice:

  Cartesian coordinates                     Fractional coordinates (reciprocal lattice)
     0.030303030  0.030303030 -0.030303030     0.090909091 -0.000000000 -0.000000000
    -0.030303030  0.030303030  0.030303030    -0.000000000  0.090909091  0.000000000
     0.030303030 -0.030303030  0.030303030     0.000000000  0.000000000  0.090909091

  Length of vectors
     0.052486388  0.052486388  0.052486388

  Shift w.r.t. Gamma in fractional coordinates (k-lattice)
     0.000000000  0.000000000  0.000000000

 Subroutine IBZKPT returns following result:

 Found     56 irreducible k-points:

 Following reciprocal coordinates:
            Coordinates               Weight
  0.000000  0.000000  0.000000      1.000000
  0.090909 -0.000000 -0.000000      8.000000
  0.181818  0.000000  0.000000      8.000000
  0.272727  0.000000  0.000000      8.000000
  0.363636 -0.000000  0.000000      8.000000
  0.454545  0.000000 -0.000000      8.000000
  0.090909  0.090909  0.000000      6.000000
  0.181818  0.090909 -0.000000     24.000000
  0.272727  0.090909 -0.000000     24.000000
  0.363636  0.090909  0.000000     24.000000
  0.454545  0.090909 -0.000000     24.000000
 -0.454545  0.090909 -0.000000     24.000000
 -0.363636  0.090909  0.000000     24.000000
 -0.272727  0.090909 -0.000000     24.000000
 -0.181818  0.090909 -0.000000     24.000000
 -0.090909  0.090909  0.000000     12.000000
  0.181818  0.181818 -0.000000      6.000000
  0.272727  0.181818 -0.000000     24.000000
  0.363636  0.181818 -0.000000     24.000000
  0.454545  0.181818 -0.000000     24.000000
 -0.454545  0.181818  0.000000     24.000000
 -0.363636  0.181818 -0.000000     24.000000
 -0.272727  0.181818  0.000000     24.000000
 -0.181818  0.181818 -0.000000     12.000000
  0.272727  0.272727 -0.000000      6.000000
  0.363636  0.272727 -0.000000     24.000000
  0.454545  0.272727 -0.000000     24.000000
 -0.454545  0.272727  0.000000     24.000000
 -0.363636  0.272727 -0.000000     24.000000
 -0.272727  0.272727 -0.000000     12.000000
  0.363636  0.363636 -0.000000      6.000000
  0.454545  0.363636 -0.000000     24.000000
 -0.454545  0.363636  0.000000     24.000000
 -0.363636  0.363636 -0.000000     12.000000
  0.454545  0.454545 -0.000000      6.000000
 -0.454545  0.454545 -0.000000     12.000000
  0.272727  0.181818  0.090909     24.000000
  0.363636  0.181818  0.090909     48.000000
  0.454545  0.181818  0.090909     48.000000
 -0.454545  0.181818  0.090909     48.000000
  0.363636  0.272727  0.090909     24.000000
  0.454545  0.272727  0.090909     48.000000
 -0.454545  0.272727  0.090909     48.000000
 -0.363636  0.272727  0.090909     48.000000
 -0.272727  0.272727  0.090909     48.000000
 -0.181818  0.272727  0.090909     24.000000
  0.454545  0.363636  0.090909     24.000000
 -0.454545  0.363636  0.090909     48.000000
 -0.363636  0.363636  0.090909     48.000000
 -0.272727  0.363636  0.090909     24.000000
 -0.454545  0.454545  0.090909     24.000000
 -0.363636  0.454545  0.090909     24.000000
 -0.454545  0.363636  0.181818     24.000000
 -0.363636  0.363636  0.181818     48.000000
 -0.363636  0.454545  0.181818     24.000000
 -0.272727  0.454545  0.181818     24.000000

 Following cartesian coordinates:
            Coordinates               Weight
  0.000000  0.000000  0.000000      1.000000
  0.090909  0.090909 -0.090909      8.000000
  0.181818  0.181818 -0.181818      8.000000
  0.272727  0.272727 -0.272727      8.000000
  0.363636  0.363636 -0.363636      8.000000
  0.454545  0.454545 -0.454545      8.000000
  0.000000  0.181818 -0.000000      6.000000
  0.090909  0.272727 -0.090909     24.000000
  0.181818  0.363636 -0.181818     24.000000
  0.272727  0.454545 -0.272727     24.000000
  0.363636  0.545455 -0.363636     24.000000
 -0.545455 -0.363636  0.545455     24.000000
 -0.454545 -0.272727  0.454545     24.000000
 -0.363636 -0.181818  0.363636     24.000000
 -0.272727 -0.090909  0.272727     24.000000
 -0.181818 -0.000000  0.181818     12.000000
 -0.000000  0.363636 -0.000000      6.000000
  0.090909  0.454545 -0.090909     24.000000
  0.181818  0.545455 -0.181818     24.000000
  0.272727  0.636364 -0.272727     24.000000
 -0.636364 -0.272727  0.636364     24.000000
 -0.545455 -0.181818  0.545455     24.000000
 -0.454545 -0.090909  0.454545     24.000000
 -0.363636  0.000000  0.363636     12.000000
 -0.000000  0.545455 -0.000000      6.000000
  0.090909  0.636364 -0.090909     24.000000
  0.181818  0.727273 -0.181818     24.000000
 -0.727273 -0.181818  0.727273     24.000000
 -0.636364 -0.090909  0.636364     24.000000
 -0.545455  0.000000  0.545455     12.000000
 -0.000000  0.727273 -0.000000      6.000000
  0.090909  0.818182 -0.090909     24.000000
 -0.818182 -0.090909  0.818182     24.000000
 -0.727273  0.000000  0.727273     12.000000
 -0.000000  0.909091 -0.000000      6.000000
 -0.909091  0.000000  0.909091     12.000000
  0.181818  0.363636 -0.000000     24.000000
  0.272727  0.454545 -0.090909     48.000000
  0.363636  0.545455 -0.181818     48.000000
 -0.545455 -0.363636  0.727273     48.000000
  0.181818  0.545455 -0.000000     24.000000
  0.272727  0.636364 -0.090909     48.000000
 -0.636364 -0.272727  0.818182     48.000000
 -0.545455 -0.181818  0.727273     48.000000
 -0.454545 -0.090909  0.636364     48.000000
 -0.363636  0.000000  0.545455     24.000000
  0.181818  0.727273  0.000000     24.000000
 -0.727273 -0.181818  0.909091     48.000000
 -0.636364 -0.090909  0.818182     48.000000
 -0.545455  0.000000  0.727273     24.000000
 -0.818182 -0.090909  1.000000     24.000000
 -0.727273 -0.000000  0.909091     24.000000
 -0.636364 -0.272727  1.000000     24.000000
 -0.545455 -0.181818  0.909091     48.000000
 -0.636364 -0.090909  1.000000     24.000000
 -0.545455  0.000000  0.909091     24.000000

 SYSTEM =  fcc Ni
 POSCAR =  fcc Ni

 Startparameter for this run:
   NWRITE =      2    write-flag & timer
   PREC   = normal    normal or accurate (medium, high low for compatibility)
   ISTART =      0    job   : 0-new  1-cont  2-samecut
   ICHARG =      2    charge: 1-file 2-atom 10-const
   ISPIN  =      2    spin polarized calculation?
   LNONCOLLINEAR =      F non collinear calculations
   LSORBIT =      F    spin-orbit coupling
   INIWAV =      1    electr: 0-lowe 1-rand  2-diag
   LASPH  =      F    aspherical Exc in radial PAW
 Electronic Relaxation 1
   ENCUT  =  270.0 eV  19.84 Ry    4.45 a.u.   2.84  2.84  2.84*2*pi/ulx,y,z
   ENINI  =  270.0     initial cutoff
   ENAUG  =  544.6 eV  augmentation charge cutoff
   NELM   =     60;   NELMIN=  2; NELMDL= -5     # of ELM steps
   EDIFF  = 0.1E-03   stopping-criterion for ELM
   LREAL  =      F    real-space projection
   NLSPLINE    = F    spline interpolate recip. space projectors
   LCOMPAT=      F    compatible to vasp.4.4
   GGA_COMPAT  = T    GGA compatible to vasp.4.4-vasp.4.6
   LMAXPAW     = -100 max onsite density
   LMAXMIX     =    2 max onsite mixed and CHGCAR
   VOSKOWN=      0    Vosko Wilk Nusair interpolation
   ROPT   =    0.00000
 Ionic relaxation
   EDIFFG = 0.1E-02   stopping-criterion for IOM
   NSW    =      0    number of steps for IOM
   NBLOCK =      1;   KBLOCK =      1    inner block; outer block
   IBRION =     -1    ionic relax: 0-MD 1-quasi-New 2-CG
   NFREE  =      0    steps in history (QN), initial steepest desc. (CG)
   ISIF   =      2    stress and relaxation
   IWAVPR =     10    prediction:  0-non 1-charg 2-wave 3-comb
   ISYM   =      2    0-nonsym 1-usesym 2-fastsym
   LCORR  =      T    Harris-Foulkes like correction to forces

   POTIM  = 0.5000    time-step for ionic-motion
   TEIN   =    0.0    initial temperature
   TEBEG  =    0.0;   TEEND  =   0.0 temperature during run
   SMASS  =  -3.00    Nose mass-parameter (am)
   estimated Nose-frequenzy (Omega)   =  0.10E-29 period in steps = 0.13E+47 mass=  -0.103E-27a.u.
   SCALEE = 1.0000    scale energy and forces
   NPACO  =    256;   APACO  = 10.0  distance and # of slots for P.C.
   PSTRESS=    0.0 pullay stress

[...]
   0.18181818  0.72727273 -0.18181818       0.018
  -0.72727273 -0.18181818  0.72727273       0.018
  -0.63636364 -0.09090909  0.63636364       0.018
  -0.54545455  0.00000000  0.54545455       0.009
  -0.00000000  0.72727273 -0.00000000       0.005
   0.09090909  0.81818182 -0.09090909       0.018
  -0.81818182 -0.09090909  0.81818182       0.018
  -0.72727273  0.00000000  0.72727273       0.009
  -0.00000000  0.90909091 -0.00000000       0.005
  -0.90909091  0.00000000  0.90909091       0.009
   0.18181818  0.36363636 -0.00000000       0.018
   0.27272727  0.45454545 -0.09090909       0.036
   0.36363636  0.54545455 -0.18181818       0.036
  -0.54545455 -0.36363636  0.72727273       0.036
   0.18181818  0.54545455 -0.00000000       0.018
   0.27272727  0.63636364 -0.09090909       0.036
  -0.63636364 -0.27272727  0.81818182       0.036
  -0.54545455 -0.18181818  0.72727273       0.036
  -0.45454545 -0.09090909  0.63636364       0.036
  -0.36363636  0.00000000  0.54545455       0.018
   0.18181818  0.72727273  0.00000000       0.018
  -0.72727273 -0.18181818  0.90909091       0.036
  -0.63636364 -0.09090909  0.81818182       0.036
  -0.54545455  0.00000000  0.72727273       0.018
  -0.81818182 -0.09090909  1.00000000       0.018
  -0.72727273 -0.00000000  0.90909091       0.018
  -0.63636364 -0.27272727  1.00000000       0.018
  -0.54545455 -0.18181818  0.90909091       0.036
  -0.63636364 -0.09090909  1.00000000       0.018
  -0.54545455  0.00000000  0.90909091       0.018

 k-points in reciprocal lattice and weights: k-points
   0.00000000  0.00000000  0.00000000       0.001
   0.09090909 -0.00000000 -0.00000000       0.006
   0.18181818  0.00000000  0.00000000       0.006
   0.27272727  0.00000000  0.00000000       0.006
   0.36363636 -0.00000000  0.00000000       0.006
   0.45454545  0.00000000 -0.00000000       0.006
   0.09090909  0.09090909  0.00000000       0.005
   0.18181818  0.09090909 -0.00000000       0.018
   0.27272727  0.09090909 -0.00000000       0.018
   0.36363636  0.09090909  0.00000000       0.018
   0.45454545  0.09090909 -0.00000000       0.018
  -0.45454545  0.09090909 -0.00000000       0.018
  -0.36363636  0.09090909  0.00000000       0.018
  -0.27272727  0.09090909 -0.00000000       0.018
  -0.18181818  0.09090909 -0.00000000       0.018
  -0.09090909  0.09090909  0.00000000       0.009
   0.18181818  0.18181818 -0.00000000       0.005
   0.27272727  0.18181818 -0.00000000       0.018
   0.36363636  0.18181818 -0.00000000       0.018
   0.45454545  0.18181818 -0.00000000       0.018
  -0.45454545  0.18181818  0.00000000       0.018
  -0.36363636  0.18181818 -0.00000000       0.018
  -0.27272727  0.18181818  0.00000000       0.018
  -0.18181818  0.18181818 -0.00000000       0.009
   0.27272727  0.27272727 -0.00000000       0.005
   0.36363636  0.27272727 -0.00000000       0.018
   0.45454545  0.27272727 -0.00000000       0.018
  -0.45454545  0.27272727  0.00000000       0.018
  -0.36363636  0.27272727 -0.00000000       0.018
  -0.27272727  0.27272727 -0.00000000       0.009
   0.36363636  0.36363636 -0.00000000       0.005
   0.45454545  0.36363636 -0.00000000       0.018
  -0.45454545  0.36363636  0.00000000       0.018
  -0.36363636  0.36363636 -0.00000000       0.009
   0.45454545  0.45454545 -0.00000000       0.005
  -0.45454545  0.45454545 -0.00000000       0.009
   0.27272727  0.18181818  0.09090909       0.018
   0.36363636  0.18181818  0.09090909       0.036
   0.45454545  0.18181818  0.09090909       0.036
  -0.45454545  0.18181818  0.09090909       0.036
   0.36363636  0.27272727  0.09090909       0.018
   0.45454545  0.27272727  0.09090909       0.036
  -0.45454545  0.27272727  0.09090909       0.036
  -0.36363636  0.27272727  0.09090909       0.036
  -0.27272727  0.27272727  0.09090909       0.036
  -0.18181818  0.27272727  0.09090909       0.018
   0.45454545  0.36363636  0.09090909       0.018
  -0.45454545  0.36363636  0.09090909       0.036
  -0.36363636  0.36363636  0.09090909       0.036
  -0.27272727  0.36363636  0.09090909       0.018
  -0.45454545  0.45454545  0.09090909       0.018
  -0.36363636  0.45454545  0.09090909       0.018
  -0.45454545  0.36363636  0.18181818       0.018
  -0.36363636  0.36363636  0.18181818       0.036
  -0.36363636  0.45454545  0.18181818       0.018
  -0.27272727  0.45454545  0.18181818       0.018

 position of ions in fractional coordinates (direct lattice)
   0.00000000  0.00000000  0.00000000

 position of ions in cartesian coordinates  (Angst):
   0.00000000  0.00000000  0.00000000

 k-point   1 :   0.0000 0.0000 0.0000  plane waves:      65
 k-point   2 :   0.0909-0.0000-0.0000  plane waves:      62
 k-point   3 :   0.1818 0.0000 0.0000  plane waves:      62
 k-point   4 :   0.2727 0.0000 0.0000  plane waves:      65
 k-point   5 :   0.3636-0.0000 0.0000  plane waves:      73
 k-point   6 :   0.4545 0.0000-0.0000  plane waves:      70
 k-point   7 :   0.0909 0.0909 0.0000  plane waves:      64
 k-point   8 :   0.1818 0.0909-0.0000  plane waves:      62
 k-point   9 :   0.2727 0.0909-0.0000  plane waves:      64
 k-point  10 :   0.3636 0.0909 0.0000  plane waves:      68
 k-point  11 :   0.4545 0.0909-0.0000  plane waves:      69
 k-point  12 :  -0.4545 0.0909-0.0000  plane waves:      71
 k-point  13 :  -0.3636 0.0909 0.0000  plane waves:      71
 k-point  14 :  -0.2727 0.0909-0.0000  plane waves:      68
 k-point  15 :  -0.1818 0.0909-0.0000  plane waves:      64
 k-point  16 :  -0.0909 0.0909 0.0000  plane waves:      63
 k-point  17 :   0.1818 0.1818-0.0000  plane waves:      64
 k-point  18 :   0.2727 0.1818-0.0000  plane waves:      66
 k-point  19 :   0.3636 0.1818-0.0000  plane waves:      69
 k-point  20 :   0.4545 0.1818-0.0000  plane waves:      69
 k-point  21 :  -0.4545 0.1818 0.0000  plane waves:      66
 k-point  22 :  -0.3636 0.1818-0.0000  plane waves:      66
 k-point  23 :  -0.2727 0.1818 0.0000  plane waves:      67
 k-point  24 :  -0.1818 0.1818-0.0000  plane waves:      65
 k-point  25 :   0.2727 0.2727-0.0000  plane waves:      72
 k-point  26 :   0.3636 0.2727-0.0000  plane waves:      72
 k-point  27 :   0.4545 0.2727-0.0000  plane waves:      71
 k-point  28 :  -0.4545 0.2727 0.0000  plane waves:      72
 k-point  29 :  -0.3636 0.2727-0.0000  plane waves:      68
 k-point  30 :  -0.2727 0.2727-0.0000  plane waves:      67
 k-point  31 :   0.3636 0.3636-0.0000  plane waves:      72
 k-point  32 :   0.4545 0.3636-0.0000  plane waves:      69
 k-point  33 :  -0.4545 0.3636 0.0000  plane waves:      70
 k-point  34 :  -0.3636 0.3636-0.0000  plane waves:      67
 k-point  35 :   0.4545 0.4545-0.0000  plane waves:      64
 k-point  36 :  -0.4545 0.4545-0.0000  plane waves:      64
 k-point  37 :   0.2727 0.1818 0.0909  plane waves:      63
 k-point  38 :   0.3636 0.1818 0.0909  plane waves:      66
 k-point  39 :   0.4545 0.1818 0.0909  plane waves:      69
 k-point  40 :  -0.4545 0.1818 0.0909  plane waves:      69
 k-point  41 :   0.3636 0.2727 0.0909  plane waves:      68
 k-point  42 :   0.4545 0.2727 0.0909  plane waves:      71
 k-point  43 :  -0.4545 0.2727 0.0909  plane waves:      68
 k-point  44 :  -0.3636 0.2727 0.0909  plane waves:      68
 k-point  45 :  -0.2727 0.2727 0.0909  plane waves:      67
 k-point  46 :  -0.1818 0.2727 0.0909  plane waves:      69
 k-point  47 :   0.4545 0.3636 0.0909  plane waves:      67
 k-point  48 :  -0.4545 0.3636 0.0909  plane waves:      69
 k-point  49 :  -0.3636 0.3636 0.0909  plane waves:      68
 k-point  50 :  -0.2727 0.3636 0.0909  plane waves:      65
 k-point  51 :  -0.4545 0.4545 0.0909  plane waves:      68
 k-point  52 :  -0.3636 0.4545 0.0909  plane waves:      69
 k-point  53 :  -0.4545 0.3636 0.1818  plane waves:      69
 k-point  54 :  -0.3636 0.3636 0.1818  plane waves:      67
 k-point  55 :  -0.3636 0.4545 0.1818  plane waves:      68
 k-point  56 :  -0.2727 0.4545 0.1818  plane waves:      68

 maximum and minimum number of plane-waves per node :        73       62

 maximum number of plane-waves:        73
 maximum index in each direction:
   IXMAX=    3   IYMAX=    2   IZMAX=    2
   IXMIN=   -3   IYMIN=   -3   IZMIN=   -3

 serial   3D FFT for wavefunctions
 parallel 3D FFT for charge:
    minimum data exchange during FFTs selected (reduces bandwidth)

 Broyden mixing: mesh for mixing (old mesh)
   NGX =  5   NGY =  5   NGZ =  5
  (NGX  = 20   NGY  = 20   NGZ  = 20)
  gives a total of    125 points

 initial charge density was supplied:
 charge density of overlapping atoms calculated
 number of electron      10.0000000 magnetization       1.0000000
 keeping initial charge density in first step

 Maximum index for augmentation-charges         1177 (set IRDMAX)

 First call to EWALD:  gamma=   0.938
 Maximum number of real-space cells 3x 3x 3
 Maximum number of reciprocal cells 3x 3x 3

--------------------------------------- Iteration      1(   1)  ---------------------------------------

 eigenvalue-minimisations  :  3108
 total energy-change (2. order) : 0.1798557E+02  (-0.2873283E+03)
 number of electron      10.0000000 magnetization       1.0000000
 augmentation part       10.0000000 magnetization       1.0000000

 Free energy of the ion-electron system (eV)
  alpha Z        PSCENC =        75.55466815
  Ewald energy   TEWEN  =     -1100.35063412
  -Hartree energ DENC   =      -176.13734385
  -exchange      EXHF   =         0.00000000
  -V(xc)+E(xc)   XCENC  =        33.63795238
  PAW double counting   =       962.83317360    -1029.67071227
  entropy T*S    EENTRO =         0.00155169
  eigenvalues    EBANDS =       174.48083498
  atomic energy  EATOM  =      1077.63607467
  Solvation  Ediel_sol  =         0.00000000
  free energy    TOTEN  =        17.98556523 eV

  energy without entropy =       17.98401355  energy(sigma->0) =       17.98504800

[...]

 eigenvalue-minimisations  :  2932
 total energy-change (2. order) :-0.2145349E+02  (-0.2049846E+02)
 number of electron      10.0000000 magnetization       1.0000000
 augmentation part       10.0000000 magnetization       1.0000000

[...]

 Broyden mixing:
  rms(total) = 0.20675E+01    rms(broyden)= 0.20673E+01
  rms(prec ) = 0.33823E+01
  weight for this iteration     100.00

[...]

 eigenvalues of (default mixing * dielectric matrix)
  average eigenvalue GAMMA=   1.2354
  1.2354

[...]

 eigenvalue-minimisations  :  3772
 total energy-change (2. order) : 0.1511997E-02  (-0.1381657E-03)
 number of electron      10.0000105 magnetization       0.5795282
 augmentation part        6.0904953 magnetization       0.5491747

 Broyden mixing:
  rms(total) = 0.83207E-02    rms(broyden)= 0.83147E-02
  rms(prec ) = 0.10486E-01
  weight for this iteration     100.00

 eigenvalues of (default mixing * dielectric matrix)
  average eigenvalue GAMMA=   1.1611
  2.4522  0.8899  0.6872  0.6151

[...]

--------------------------------------- Iteration      1(  10)  ---------------------------------------

 eigenvalue-minimisations  :  1728
 total energy-change (2. order) :-0.4607451E-04  (-0.1899823E-05)
 number of electron      10.0000105 magnetization       0.5795282
 augmentation part        6.0904953 magnetization       0.5491747

 Free energy of the ion-electron system (eV)
  alpha Z        PSCENC =        75.55466815
  Ewald energy   TEWEN  =     -1100.35063412
  -Hartree energ DENC   =      -155.14026219
  -exchange      EXHF   =         0.00000000
  -V(xc)+E(xc)   XCENC  =        32.44226271
  PAW double counting   =      1640.97271644    -1715.45669415
  entropy T*S    EENTRO =         0.00284712
  eigenvalues    EBANDS =       141.29428479
  atomic energy  EATOM  =      1077.63607467
  Solvation  Ediel_sol  =         0.00000000
  free energy    TOTEN  =        -3.04473658 eV

  energy without entropy =       -3.04758369  energy(sigma->0) =       -3.04568562

 average (electrostatic) potential at core
  the test charge radii are     0.9791
  (the norm of the test charge is              1.0000)
       1 -74.3673

 E-fermi :  18.2188     XC(G=0): -16.3349     alpha+bet :-26.5354

 Fermi energy:        18.2187676634

 spin component 1

 k-point     1 :       0.0000    0.0000    0.0000
  band No.  band energies     occupation
      1       5.3858      1.00000
      2      14.0128      1.00000
      3      14.0128      1.00000
      4      14.0128      1.00000
      5      16.3057      1.00000
      6      16.3057      1.00000
      7      45.6686      0.00000
      8      53.5696      0.00000
      9      53.5697      0.00000
     10      53.5697      0.00000
     11      60.2146      0.00000
     12      60.8019      0.00000

[...]

 k-point    56 :      -0.2727    0.4545    0.1818
  band No.  band energies     occupation
      1      11.1144      1.00000
      2      12.3278      1.00000
      3      13.1988      1.00000
      4      16.1251      1.00000
      5      17.9833      1.03509
      6      28.8591      0.00000
      7      28.9484      0.00000
      8      33.2189      0.00000
      9      36.6230      0.00000
     10      55.3521      0.00000
     11      59.7482      0.00000
     12      63.9214      0.00000
 Fermi energy:        18.2187676634

 spin component 2

[...]

 k-point    56 :      -0.2727    0.4545    0.1818
  band No.  band energies     occupation
      1      11.4644      1.00000
      2      12.8393      1.00000
      3      13.7233      1.00000
      4      16.6872      1.00000
      5      18.7657     -0.00038
      6      29.1280      0.00000
      7      29.2202      0.00000
      8      33.4659      0.00000
      9      36.7956      0.00000
     10      55.4150      0.00000
     11      59.7784      0.00000
     12      64.1622      0.00000

 soft charge-density along one line, spin component           1
         0         1         2         3         4         5         6         7         8         9
 total charge-density along one line

 soft charge-density along one line, spin component           2
         0         1         2         3         4         5         6         7         8         9
 total charge-density along one line

------------------------ aborting loop because EDIFF is reached ----------------------------------------

 total charge

# of ion       s       p       d       tot
    1        0.783   1.122   8.781  10.686

 magnetization (x)

[...]

  FORCE on cell =-STRESS in cart. coord.  units (eV):
  Direction    XX          YY          ZZ          XY          YZ          ZX
  Alpha Z    75.55467    75.55467    75.55467
  Ewald    -366.78356  -366.78356  -366.78356     0.00000    -0.00000    -0.00000
  Hartree    51.73173    51.73173    51.73173     0.00000     0.00000     0.00000
  E(xc)     -57.24025   -57.24025   -57.24025     0.00006     0.00006     0.00006
  Local      44.84716    44.84716    44.84716     0.00055     0.00055     0.00055
  n-local     8.12155     2.80028     6.64349    -5.13427     2.46292     4.32353
  augment   173.08864   173.08864   173.08864    -0.00055    -0.00055    -0.00055
  Kinetic    84.24889    88.25668    83.50727     2.03116    -2.04858    -1.18995
  Fock        0.00000     0.00000     0.00000     0.00000     0.00000     0.00000
  Total      12.39111    12.39111    12.39111    -0.00000     0.00000    -0.00000
  in kB    2941.14845  2941.14845  2941.14845    -0.00000     0.00000    -0.00000

 VOLUME and BASIS-vectors are now :
  energy-cutoff  :      270.00
  volume of cell :        6.75
      direct lattice vectors                 reciprocal lattice vectors
     1.500000000  1.500000000  0.000000000     0.333333333  0.333333333 -0.333333333
     0.000000000  1.500000000  1.500000000    -0.333333333  0.333333333  0.333333333
     1.500000000  0.000000000  1.500000000     0.333333333 -0.333333333  0.333333333

  length of vectors
     2.121320344  2.121320344  2.121320344     0.577350269  0.577350269  0.577350269

 FORCES acting on ions
    electron-ion (+dipol)            ewald-force                    non-local-force                 convergence-correction
   0.727E-14 0.336E-13 0.238E-13   0.302E-14 0.410E-14 0.242E-15   -.703E-23 0.331E-22 -.414E-24   0.107E-13 0.339E-13 0.250E-13
   0.727E-14 0.336E-13 0.238E-13   0.302E-14 0.410E-14 0.242E-15   -.703E-23 0.331E-22 -.414E-24   0.107E-13 0.339E-13 0.250E-13

 POSITION                                       TOTAL-FORCE (eV/Angst)
      0.00000      0.00000      0.00000         0.000000      0.000000     -0.000000
    total drift:                                0.000000      0.000000      0.000000

  FREE ENERGIE OF THE ION-ELECTRON SYSTEM (eV)
  free  energy   TOTEN  =        -3.04473658 eV

  energy  without entropy=       -3.04758369  energy(sigma->0) =       -3.04568562

 writing wavefunctions

 total charge

[...]

 magnetization (x)

# of ion       s       p       d       tot
    1       -0.004  -0.025   0.580   0.550