 vasp.6.3.0 20Jan22 (build Feb 01 2022 16:52:37) complex

 executed on           TETRA_NSC1 date 2022.02.23  14:09:15

 INCAR:
   SYSTEM = Ni fcc bulk
   ISTART = 0
   ISPIN = 2
   MAGMOM = 1.0
   ISMEAR = -5
   VOSKOWN = 1
   LORBIT = 11

 POTCAR:    PAW_PBE Ni 02Aug2007
 POTCAR:    PAW_PBE Ni 02Aug2007
   VRHFIN =Ni:

   TITEL  = PAW_PBE Ni 02Aug2007
   POMASS =   58.690; ZVAL   =   10.000    mass and valenz
   ENMAX  =  269.532; ENMIN  =  202.149 eV

  PAW_PBE Ni 02Aug2007                  :

 POSCAR: fcc Ni
  positions in cartesian coordinates
 exchange correlation table for  LEXCH =        8
   RHO(1)=    0.500       N(1)  =     2000
   RHO(2)=  100.500       N(2)  =     4000

 ion  position               nearest neighbor table
   1  0.000  0.000  0.000-

  LATTYP: Found a face centered cubic cell.
 ALAT       =     3.5228437763

  Lattice vectors:

 A1 = (   1.7614218882,   1.7614218882,   0.0000000000)
 A2 = (   0.0000000000,   1.7614218882,   1.7614218882)
 A3 = (   1.7614218882,   0.0000000000,   1.7614218882)

Analysis of symmetry for initial positions (statically):
 Subroutine PRICEL returns:
 Original cell was already a primitive cell.

 Routine SETGRP: Setting up the symmetry group for a
 face centered cubic supercell.

 Subroutine GETGRP returns: Found 48 space group operations
 (whereof 48 operations were pure point group operations)
 out of a pool of 48 trial point group operations.

The static configuration has the point symmetry O_h .

Analysis of symmetry for dynamics (positions and initial velocities):
 Subroutine PRICEL returns:
 Original cell was already a primitive cell.

[...]

The dynamic configuration has the point symmetry O_h .

Analysis of structural, dynamic, and magnetic symmetry:
 Subroutine PRICEL returns:
 Original cell was already a primitive cell.

 Routine SETGRP: Setting up the symmetry group for a
 face centered cubic supercell.

 Subroutine GETGRP returns: Found 48 space group operations
 (whereof 48 operations were pure point group operations)
 out of a pool of 48 trial point group operations.

The overall configuration has the point symmetry O_h .

 Subroutine INISYM returns: Found 48 space group operations
 (whereof 48 operations are pure point group operations),
 and found     1 'primitive' translations

                                     Primitive cell

  volume of cell :      10.9300

  direct lattice vectors                    reciprocal lattice vectors
     1.761421888  1.761421888  0.000000000     0.283861580  0.283861580 -0.283861580
     0.000000000  1.761421888  1.761421888    -0.283861580  0.283861580  0.283861580
     1.761421888  0.000000000  1.761421888     0.283861580 -0.283861580  0.283861580

  length of vectors
     2.491026723  2.491026723  2.491026723     0.491662679  0.491662679  0.491662679

  position of ions in fractional coordinates (direct lattice)
     0.000000000  0.000000000  0.000000000

  ion indices of the primitive-cell ions
   primitive index   ion index
                 1           1

 KPOINTS: k-points

Automatic generation of k-mesh.
 Grid dimensions read from file:
 generate k-points for:   11   11   11

 Generating k-lattice:

  Cartesian coordinates                     Fractional coordinates (reciprocal lattice)
     0.025805598  0.025805598 -0.025805598     0.090909091  0.000000000  0.000000000
    -0.025805598  0.025805598  0.025805598     0.000000000  0.090909091 -0.000000000
     0.025805598 -0.025805598  0.025805598    -0.000000000 -0.000000000  0.090909091

  Length of vectors
     0.044696607  0.044696607  0.044696607

  Shift w.r.t. Gamma in fractional coordinates (k-lattice)
     0.000000000  0.000000000  0.000000000

 TETIRR: Found    201 inequivalent tetrahedra from     7986

 Subroutine IBZKPT returns following result:

 Found     56 irreducible k-points:

 Following reciprocal coordinates:
            Coordinates               Weight
  0.000000  0.000000  0.000000      1.000000
  0.090909  0.000000  0.000000      8.000000
  0.181818 -0.000000 -0.000000      8.000000
  0.272727 -0.000000 -0.000000      8.000000
  0.363636 -0.000000 -0.000000      8.000000
  0.454545 -0.000000  0.000000      8.000000
  0.090909  0.090909 -0.000000      6.000000
  0.181818  0.090909  0.000000     24.000000
  0.272727  0.090909  0.000000     24.000000
  0.363636  0.090909  0.000000     24.000000
  0.454545  0.090909  0.000000     24.000000
 -0.454545  0.090909  0.000000     24.000000
 -0.363636  0.090909 -0.000000     24.000000
 -0.272727  0.090909  0.000000     24.000000
 -0.181818  0.090909  0.000000     24.000000
 -0.090909  0.090909 -0.000000     12.000000
  0.181818  0.181818  0.000000      6.000000
  0.272727  0.181818  0.000000     24.000000
  0.363636  0.181818  0.000000     24.000000
  0.454545  0.181818  0.000000     24.000000
 -0.454545  0.181818 -0.000000     24.000000
 -0.363636  0.181818  0.000000     24.000000
 -0.272727  0.181818  0.000000     24.000000
 -0.181818  0.181818  0.000000     12.000000
  0.272727  0.272727  0.000000      6.000000
  0.363636  0.272727  0.000000     24.000000
  0.454545  0.272727  0.000000     24.000000
 -0.454545  0.272727 -0.000000     24.000000
 -0.363636  0.272727  0.000000     24.000000
 -0.272727  0.272727  0.000000     12.000000
  0.363636  0.363636  0.000000      6.000000
  0.454545  0.363636  0.000000     24.000000
 -0.454545  0.363636 -0.000000     24.000000
 -0.363636  0.363636  0.000000     12.000000
  0.454545  0.454545  0.000000      6.000000
 -0.454545  0.454545  0.000000     12.000000
  0.272727  0.181818  0.090909     24.000000
  0.363636  0.181818  0.090909     48.000000
  0.454545  0.181818  0.090909     48.000000
 -0.454545  0.181818  0.090909     48.000000
  0.363636  0.272727  0.090909     24.000000
  0.454545  0.272727  0.090909     48.000000
 -0.454545  0.272727  0.090909     48.000000
 -0.363636  0.272727  0.090909     48.000000
 -0.272727  0.272727  0.090909     48.000000
 -0.181818  0.272727  0.090909     24.000000
  0.454545  0.363636  0.090909     24.000000
 -0.454545  0.363636  0.090909     48.000000
 -0.363636  0.363636  0.090909     48.000000
 -0.272727  0.363636  0.090909     24.000000
 -0.454545  0.454545  0.090909     24.000000
 -0.363636  0.454545  0.090909     24.000000
 -0.454545  0.363636  0.181818     24.000000
 -0.363636  0.363636  0.181818     48.000000
 -0.363636  0.454545  0.181818     24.000000
 -0.272727  0.454545  0.181818     24.000000

 Following cartesian coordinates:
            Coordinates               Weight
  0.000000  0.000000  0.000000      1.000000
  0.090909  0.090909 -0.090909      8.000000
  0.181818  0.181818 -0.181818      8.000000
  0.272727  0.272727 -0.272727      8.000000
  0.363636  0.363636 -0.363636      8.000000
  0.454545  0.454545 -0.454545      8.000000
  0.000000  0.181818 -0.000000      6.000000
  0.090909  0.272727 -0.090909     24.000000
  0.181818  0.363636 -0.181818     24.000000
  0.272727  0.454545 -0.272727     24.000000
  0.363636  0.545455 -0.363636     24.000000
 -0.545455 -0.363636  0.545455     24.000000
 -0.454545 -0.272727  0.454545     24.000000
 -0.363636 -0.181818  0.363636     24.000000
 -0.272727 -0.090909  0.272727     24.000000
 -0.181818 -0.000000  0.181818     12.000000
  0.000000  0.363636  0.000000      6.000000
  0.090909  0.454545 -0.090909     24.000000
  0.181818  0.545455 -0.181818     24.000000
  0.272727  0.636364 -0.272727     24.000000
 -0.636364 -0.272727  0.636364     24.000000
 -0.545455 -0.181818  0.545455     24.000000
 -0.454545 -0.090909  0.454545     24.000000
 -0.363636 -0.000000  0.363636     12.000000
  0.000000  0.545455  0.000000      6.000000
  0.090909  0.636364 -0.090909     24.000000
  0.181818  0.727273 -0.181818     24.000000
 -0.727273 -0.181818  0.727273     24.000000
 -0.636364 -0.090909  0.636364     24.000000
 -0.545455 -0.000000  0.545455     12.000000
  0.000000  0.727273  0.000000      6.000000
  0.090909  0.818182 -0.090909     24.000000
 -0.818182 -0.090909  0.818182     24.000000
 -0.727273 -0.000000  0.727273     12.000000
  0.000000  0.909091  0.000000      6.000000
 -0.909091 -0.000000  0.909091     12.000000
  0.181818  0.363636  0.000000     24.000000
  0.272727  0.454545 -0.090909     48.000000
  0.363636  0.545455 -0.181818     48.000000
 -0.545455 -0.363636  0.727273     48.000000
  0.181818  0.545455 -0.000000     24.000000
  0.272727  0.636364 -0.090909     48.000000
 -0.636364 -0.272727  0.818182     48.000000
 -0.545455 -0.181818  0.727273     48.000000
 -0.454545 -0.090909  0.636364     48.000000
 -0.363636 -0.000000  0.545455     24.000000
  0.181818  0.727273  0.000000     24.000000
 -0.727273 -0.181818  0.909091     48.000000
 -0.636364 -0.090909  0.818182     48.000000
 -0.545455 -0.000000  0.727273     24.000000
 -0.818182 -0.090909  1.000000     24.000000
 -0.727273 -0.000000  0.909091     24.000000
 -0.636364 -0.272727  1.000000     24.000000
 -0.545455 -0.181818  0.909091     48.000000
 -0.636364 -0.090909  1.000000     24.000000
 -0.545455 -0.000000  0.909091     24.000000

 SYSTEM =  Ni fcc bulk
 POSCAR =  fcc Ni

 Startparameter for this run:
   NWRITE =      2    write-flag & timer
   PREC   = normal    normal or accurate (medium, high low for compatibility)
   ISTART =      0    job   : 0-new  1-cont  2-samecut
   ICHARG =      2    charge: 1-file 2-atom 10-const
   ISPIN  =      2    spin polarized calculation?
   LNONCOLLINEAR =      F non collinear calculations
   LSORBIT =      F    spin-orbit coupling
   INIWAV =      1    electr: 0-lowe 1-rand  2-diag
   LASPH  =      F    aspherical Exc in radial PAW
 Electronic Relaxation 1
   ENCUT  =  269.5 eV  19.81 Ry    4.45 a.u.   3.33  3.33  3.33*2*pi/ulx,y,z
   ENINI  =  269.5     initial cutoff
   ENAUG  =  544.6 eV  augmentation charge cutoff
   NELM   =     60;   NELMIN=  2; NELMDL= -5     # of ELM steps
   EDIFF  = 0.1E-03   stopping-criterion for ELM
   LREAL  =      F    real-space projection
   NLSPLINE    = F    spline interpolate recip. space projectors
   LCOMPAT=      F    compatible to vasp.4.4
   GGA_COMPAT  = T    GGA compatible to vasp.4.4-vasp.4.6
   LMAXPAW     = -100 max onsite density
   LMAXMIX     =    2 max onsite mixed and CHGCAR
   VOSKOWN=      1    Vosko Wilk Nusair interpolation
   ROPT   =    0.00000
 Ionic relaxation
   EDIFFG = 0.1E-02   stopping-criterion for IOM
   NSW    =      0    number of steps for IOM
   NBLOCK =      1;   KBLOCK =      1    inner block; outer block
   IBRION =     -1    ionic relax: 0-MD 1-quasi-New 2-CG
   NFREE  =      0    steps in history (QN), initial steepest desc. (CG)
   ISIF   =      2    stress and relaxation
   IWAVPR =     10    prediction:  0-non 1-charg 2-wave 3-comb
   ISYM   =      2    0-nonsym 1-usesym 2-fastsym
   LCORR  =      T    Harris-Foulkes like correction to forces

   POTIM  = 0.5000    time-step for ionic-motion
   TEIN   =    0.0    initial temperature
   TEBEG  =    0.0;   TEEND  =   0.0 temperature during run
   SMASS  =  -3.00    Nose mass-parameter (am)
   estimated Nose-frequenzy (Omega)   =  0.10E-29 period in steps = 0.13E+47 mass=  -0.142E-27a.u.
   SCALEE = 1.0000    scale energy and forces
   NPACO  =    256;   APACO  = 10.0  distance and # of slots for P.C.
[...]
  -0.63636364 -0.09090909  0.81818182       0.036
  -0.54545455 -0.00000000  0.72727273       0.018
  -0.81818182 -0.09090909  1.00000000       0.018
  -0.72727273 -0.00000000  0.90909091       0.018
  -0.63636364 -0.27272727  1.00000000       0.018
  -0.54545455 -0.18181818  0.90909091       0.036
  -0.63636364 -0.09090909  1.00000000       0.018
  -0.54545455 -0.00000000  0.90909091       0.018

 k-points in reciprocal lattice and weights: k-points
   0.00000000  0.00000000  0.00000000       0.001
   0.09090909  0.00000000  0.00000000       0.006
   0.18181818 -0.00000000 -0.00000000       0.006
   0.27272727 -0.00000000 -0.00000000       0.006
   0.36363636 -0.00000000 -0.00000000       0.006
   0.45454545 -0.00000000  0.00000000       0.006
   0.09090909  0.09090909 -0.00000000       0.005
   0.18181818  0.09090909  0.00000000       0.018
   0.27272727  0.09090909  0.00000000       0.018
   0.36363636  0.09090909  0.00000000       0.018
   0.45454545  0.09090909  0.00000000       0.018
  -0.45454545  0.09090909  0.00000000       0.018
  -0.36363636  0.09090909 -0.00000000       0.018
  -0.27272727  0.09090909  0.00000000       0.018
  -0.18181818  0.09090909  0.00000000       0.018
  -0.09090909  0.09090909 -0.00000000       0.009
   0.18181818  0.18181818  0.00000000       0.005
   0.27272727  0.18181818  0.00000000       0.018
   0.36363636  0.18181818  0.00000000       0.018
   0.45454545  0.18181818  0.00000000       0.018
  -0.45454545  0.18181818 -0.00000000       0.018
  -0.36363636  0.18181818  0.00000000       0.018
  -0.27272727  0.18181818  0.00000000       0.018
  -0.18181818  0.18181818  0.00000000       0.009
   0.27272727  0.27272727  0.00000000       0.005
   0.36363636  0.27272727  0.00000000       0.018
   0.45454545  0.27272727  0.00000000       0.018
  -0.45454545  0.27272727 -0.00000000       0.018
  -0.36363636  0.27272727  0.00000000       0.018
  -0.27272727  0.27272727  0.00000000       0.009
   0.36363636  0.36363636  0.00000000       0.005
   0.45454545  0.36363636  0.00000000       0.018
  -0.45454545  0.36363636 -0.00000000       0.018
  -0.36363636  0.36363636  0.00000000       0.009
   0.45454545  0.45454545  0.00000000       0.005
  -0.45454545  0.45454545  0.00000000       0.009
   0.27272727  0.18181818  0.09090909       0.018
   0.36363636  0.18181818  0.09090909       0.036
   0.45454545  0.18181818  0.09090909       0.036
  -0.45454545  0.18181818  0.09090909       0.036
   0.36363636  0.27272727  0.09090909       0.018
   0.45454545  0.27272727  0.09090909       0.036
  -0.45454545  0.27272727  0.09090909       0.036
  -0.36363636  0.27272727  0.09090909       0.036
  -0.27272727  0.27272727  0.09090909       0.036
  -0.18181818  0.27272727  0.09090909       0.018
   0.45454545  0.36363636  0.09090909       0.018
  -0.45454545  0.36363636  0.09090909       0.036
  -0.36363636  0.36363636  0.09090909       0.036
  -0.27272727  0.36363636  0.09090909       0.018
  -0.45454545  0.45454545  0.09090909       0.018
  -0.36363636  0.45454545  0.09090909       0.018
  -0.45454545  0.36363636  0.18181818       0.018
  -0.36363636  0.36363636  0.18181818       0.036
  -0.36363636  0.45454545  0.18181818       0.018
  -0.27272727  0.45454545  0.18181818       0.018

 position of ions in fractional coordinates (direct lattice)
   0.00000000  0.00000000  0.00000000

 position of ions in cartesian coordinates  (Angst):
   0.00000000  0.00000000  0.00000000

 k-point   1 :   0.0000 0.0000 0.0000  plane waves:     113
 k-point   2 :   0.0909 0.0000 0.0000  plane waves:     113
 k-point   3 :   0.1818-0.0000-0.0000  plane waves:     110
 k-point   4 :   0.2727-0.0000-0.0000  plane waves:     113
 k-point   5 :   0.3636-0.0000-0.0000  plane waves:     111
 k-point   6 :   0.4545-0.0000 0.0000  plane waves:     108
 k-point   7 :   0.0909 0.0909-0.0000  plane waves:     113
 k-point   8 :   0.1818 0.0909 0.0000  plane waves:     116
 k-point   9 :   0.2727 0.0909 0.0000  plane waves:     110
 k-point  10 :   0.3636 0.0909 0.0000  plane waves:     109
 k-point  11 :   0.4545 0.0909 0.0000  plane waves:     112
 k-point  12 :  -0.4545 0.0909 0.0000  plane waves:     112
 k-point  13 :  -0.3636 0.0909-0.0000  plane waves:     107
 k-point  14 :  -0.2727 0.0909 0.0000  plane waves:     109
 k-point  15 :  -0.1818 0.0909 0.0000  plane waves:     112
 k-point  16 :  -0.0909 0.0909-0.0000  plane waves:     115
 k-point  17 :   0.1818 0.1818 0.0000  plane waves:     113
 k-point  18 :   0.2727 0.1818 0.0000  plane waves:     111
 k-point  19 :   0.3636 0.1818 0.0000  plane waves:     112
 k-point  20 :   0.4545 0.1818 0.0000  plane waves:     110
 k-point  21 :  -0.4545 0.1818-0.0000  plane waves:     109
 k-point  22 :  -0.3636 0.1818 0.0000  plane waves:     109
 k-point  23 :  -0.2727 0.1818 0.0000  plane waves:     108
 k-point  24 :  -0.1818 0.1818 0.0000  plane waves:     111
 k-point  25 :   0.2727 0.2727 0.0000  plane waves:     113
 k-point  26 :   0.3636 0.2727 0.0000  plane waves:     109
 k-point  27 :   0.4545 0.2727 0.0000  plane waves:     108
 k-point  28 :  -0.4545 0.2727-0.0000  plane waves:     108
 k-point  29 :  -0.3636 0.2727 0.0000  plane waves:     107
 k-point  30 :  -0.2727 0.2727 0.0000  plane waves:     107
 k-point  31 :   0.3636 0.3636 0.0000  plane waves:     112
 k-point  32 :   0.4545 0.3636 0.0000  plane waves:     110
 k-point  33 :  -0.4545 0.3636-0.0000  plane waves:     108
 k-point  34 :  -0.3636 0.3636 0.0000  plane waves:     106
 k-point  35 :   0.4545 0.4545 0.0000  plane waves:     112
 k-point  36 :  -0.4545 0.4545 0.0000  plane waves:     114
 k-point  37 :   0.2727 0.1818 0.0909  plane waves:     114
 k-point  38 :   0.3636 0.1818 0.0909  plane waves:     111
 k-point  39 :   0.4545 0.1818 0.0909  plane waves:     107
 k-point  40 :  -0.4545 0.1818 0.0909  plane waves:     109
 k-point  41 :   0.3636 0.2727 0.0909  plane waves:     110
 k-point  42 :   0.4545 0.2727 0.0909  plane waves:     110
 k-point  43 :  -0.4545 0.2727 0.0909  plane waves:     108
 k-point  44 :  -0.3636 0.2727 0.0909  plane waves:     109
 k-point  45 :  -0.2727 0.2727 0.0909  plane waves:     111
 k-point  46 :  -0.1818 0.2727 0.0909  plane waves:     110
 k-point  47 :   0.4545 0.3636 0.0909  plane waves:     111
 k-point  48 :  -0.4545 0.3636 0.0909  plane waves:     107
 k-point  49 :  -0.3636 0.3636 0.0909  plane waves:     108
 k-point  50 :  -0.2727 0.3636 0.0909  plane waves:     108
 k-point  51 :  -0.4545 0.4545 0.0909  plane waves:     108
 k-point  52 :  -0.3636 0.4545 0.0909  plane waves:     106
 k-point  53 :  -0.4545 0.3636 0.1818  plane waves:     109
 k-point  54 :  -0.3636 0.3636 0.1818  plane waves:     109
 k-point  55 :  -0.3636 0.4545 0.1818  plane waves:     105
 k-point  56 :  -0.2727 0.4545 0.1818  plane waves:     108

 maximum and minimum number of plane-waves per node :       116      105

 maximum number of plane-waves:       116
 maximum index in each direction:
   IXMAX=    3   IYMAX=    3   IZMAX=    3
   IXMIN=   -3   IYMIN=   -3   IZMIN=   -3

 serial   3D FFT for wavefunctions
 parallel 3D FFT for charge:
    minimum data exchange during FFTs selected (reduces bandwidth)

 Broyden mixing: mesh for mixing (old mesh)
   NGX =  7   NGY =  7   NGZ =  7
  (NGX  = 20   NGY  = 20   NGZ  = 20)
  gives a total of    343 points

 initial charge density was supplied:
 charge density of overlapping atoms calculated
 number of electron      10.0000000 magnetization       1.0000000
 keeping initial charge density in first step

 Maximum index for augmentation-charges          733 (set IRDMAX)

 First call to EWALD:  gamma=   0.799
 Maximum number of real-space cells 3x 3x 3
 Maximum number of reciprocal cells 3x 3x 3

--------------------------------------- Iteration      1(   1)  ---------------------------------------

 BZINTS: Fermi energy:   16.235060;   10.000000 electrons
         Band energy: 0.111901E+03;  BLOECHL correction:   -0.384130

 eigenvalue-minimisations  :  2868
 total energy-change (2. order) : 0.1839311E+02  (-0.3027498E+03)
 number of electron      10.0000000 magnetization       1.0000000
 augmentation part       10.0000000 magnetization       1.0000000

 Free energy of the ion-electron system (eV)
  alpha Z        PSCENC =        46.66001921
  Ewald energy   TEWEN  =      -937.04180826
  -Hartree energ DENC   =      -245.68884612
  -exchange      EXHF   =         0.00000000
  -V(xc)+E(xc)   XCENC  =        31.76484532
  PAW double counting   =       962.83317360    -1029.67071227
  entropy T*S    EENTRO =         0.00000000
  eigenvalues    EBANDS =       111.90079008
  atomic energy  EATOM  =      1077.63565123
  Solvation  Ediel_sol  =         0.00000000
  free energy    TOTEN  =        18.39311279 eV

  energy without entropy =       18.39311279  energy(sigma->0) =       18.39311279

[...]

 eigenvalue-minimisations  :  2940
 total energy-change (2. order) :-0.2439508E+02  (-0.2303650E+02)
 number of electron      10.0000000 magnetization       1.0000000
 augmentation part       10.0000000 magnetization       1.0000000

[...]

 eigenvalue-minimisations  :  3084
 total energy-change (2. order) :-0.3295216E-04  (-0.3289336E-04)
 number of electron       9.9999908 magnetization       0.6828737
 augmentation part        5.6082992 magnetization       0.5693290

 Broyden mixing:
  rms(total) = 0.97834E+00    rms(broyden)= 0.97807E+00
  rms(prec ) = 0.32195E+01
  weight for this iteration     100.00

[...]

 eigenvalues of (default mixing * dielectric matrix)
  average eigenvalue GAMMA=   0.6841
  0.6841

[...]

 Broyden mixing:
  rms(total) = 0.26137E-02    rms(broyden)= 0.26128E-02
  rms(prec ) = 0.60629E-02
  weight for this iteration     100.00

 eigenvalues of (default mixing * dielectric matrix)
  average eigenvalue GAMMA=   1.0998
  2.3208  0.9643  0.9643  0.6247  0.6247

[...]

--------------------------------------- Iteration      1(  11)  ---------------------------------------

[...]

 eigenvalue-minimisations  :  1412
 total energy-change (2. order) : 0.4107374E-05  (-0.3317069E-05)
 number of electron       9.9999894 magnetization       0.5881617
 augmentation part        6.1629768 magnetization       0.5679363

 Free energy of the ion-electron system (eV)
  alpha Z        PSCENC =        46.66001921
  Ewald energy   TEWEN  =      -937.04180826
  -Hartree energ DENC   =      -225.02105622
  -exchange      EXHF   =         0.00000000
  -V(xc)+E(xc)   XCENC  =        30.69333961
  PAW double counting   =      1136.08238567    -1204.56802558
  entropy T*S    EENTRO =         0.00000000
  eigenvalues    EBANDS =        70.10084137
  atomic energy  EATOM  =      1077.63565123
  Solvation  Ediel_sol  =         0.00000000
  free energy    TOTEN  =        -5.45865295 eV

  energy without entropy =       -5.45865295  energy(sigma->0) =       -5.45865295

 average (electrostatic) potential at core
  the test charge radii are     0.9791
  (the norm of the test charge is              1.0000)
       1 -82.0687

 E-fermi :   9.2991     XC(G=0): -13.2276     alpha+bet :-16.3874

 Fermi energy:         9.2990650983

 spin component 1

 k-point     1 :       0.0000    0.0000    0.0000
  band No.  band energies     occupation
      1       0.3360      1.00000
      2       6.9084      1.00000
      3       6.9084      1.00000
      4       6.9084      1.00000
      5       8.0669      1.00000
      6       8.0670      1.00000
      7      33.0327      0.00000
      8      36.8404      0.00000
      9      36.8406      0.00000
     10      36.8406      0.00000
     11      39.9227      0.00000
     12      39.9228      0.00000

[...]

 k-point    56 :      -0.2727    0.4545    0.1818
  band No.  band energies     occupation
      1       5.6043      1.00000
      2       6.0494      1.00000
      3       6.4871      1.00000
      4       8.0171      1.00000
      5       8.7995      1.00000
      6      16.5154      0.00000
      7      16.5461      0.00000
      8      19.5754      0.00000
      9      21.5430      0.00000
     10      37.4873      0.00000
     11      41.2974      0.00000
     12      42.4990      0.00000
 Fermi energy:         9.2990650983

 spin component 2

[...]

 k-point    56 :      -0.2727    0.4545    0.1818
  band No.  band energies     occupation
      1       5.9783      1.00000
      2       6.6024      1.00000
      3       7.0519      1.00000
      4       8.5729      1.00000
      5       9.5933     -0.01189
      6      16.6763      0.00000
      7      16.7183      0.00000
      8      19.7298      0.00000
      9      21.6511      0.00000
     10      37.4856      0.00000
     11      41.2575      0.00000
     12      42.5629      0.00000

 soft charge-density along one line, spin component           1
         0         1         2         3         4         5         6         7         8         9
 total charge-density along one line

 soft charge-density along one line, spin component           2
         0         1         2         3         4         5         6         7         8         9
 total charge-density along one line

------------------------ aborting loop because EDIFF is reached ----------------------------------------

 total charge

# of ion       s       p       d       tot
    1        0.494   0.492   8.316   9.301

 magnetization (x)

[...]

  FORCE on cell =-STRESS in cart. coord.  units (eV):
  Direction    XX          YY          ZZ          XY          YZ          ZX
  Alpha Z    46.66002    46.66002    46.66002
  Ewald    -312.34728  -312.34728  -312.34728     0.00000    -0.00000    -0.00000
  Hartree    75.00925    75.00925    75.00925     0.00000     0.00000     0.00000
  E(xc)     -55.02816   -55.02815   -55.02816    -0.00006    -0.00006    -0.00006
  Local      -0.56352    -0.56349    -0.56352     0.00068     0.00068     0.00067
  n-local    -7.39483   -10.15232    -7.74073    -3.26556     1.63631     2.74674
  augment   176.08504   176.08498   176.08504    -0.00041    -0.00041    -0.00039
  Kinetic    77.47635    80.08994    76.95084     1.52485    -1.35025    -1.24687
  Fock        0.00000     0.00000     0.00000     0.00000     0.00000     0.00000
  Total      -0.44157    -0.44157    -0.44157     0.00000    -0.00000     0.00000
  in kB     -64.72833   -64.72833   -64.72833     0.00000    -0.00000     0.00000

 VOLUME and BASIS-vectors are now :
  energy-cutoff  :      269.53
  volume of cell :       10.93
      direct lattice vectors                 reciprocal lattice vectors
     1.761421888  1.761421888  0.000000000     0.283861580  0.283861580 -0.283861580
     0.000000000  1.761421888  1.761421888    -0.283861580  0.283861580  0.283861580
     1.761421888  0.000000000  1.761421888     0.283861580 -0.283861580  0.283861580

  length of vectors
     2.491026723  2.491026723  2.491026723     0.491662679  0.491662679  0.491662679

 FORCES acting on ions
    electron-ion (+dipol)            ewald-force                    non-local-force                 convergence-correction
   0.396E-13 0.581E-13 0.329E-13   0.107E-14 0.216E-14 -.120E-14   -.539E-23 -.161E-22 -.153E-22   0.277E-13 0.360E-13 0.473E-14
   0.396E-13 0.581E-13 0.329E-13   0.107E-14 0.216E-14 -.120E-14   -.539E-23 -.161E-22 -.153E-22   0.277E-13 0.360E-13 0.473E-14

 POSITION                                       TOTAL-FORCE (eV/Angst)
      0.00000      0.00000      0.00000         0.000000      0.000000      0.000000
    total drift:                                0.000000      0.000000      0.000000

  FREE ENERGIE OF THE ION-ELECTRON SYSTEM (eV)
  free  energy   TOTEN  =        -5.45865295 eV

  energy  without entropy=       -5.45865295  energy(sigma->0) =       -5.45865295

 writing wavefunctions
|           W    W    AA    RRRRR   N    N  II  N    N   GGGG   !!!           |
|           W    W   A  A   R    R  NN   N  II  NN   N  G    G  !!!           |
|           W    W  A    A  R    R  N N  N  II  N N  N  G       !!!           |
|           W WW W  AAAAAA  RRRRR   N  N N  II  N  N N  G  GGG   !            |
|           WW  WW  A    A  R   R   N   NN  II  N   NN  G    G                |
|           W    W  A    A  R    R  N    N  II  N    N   GGGG   !!!           |
|     Tetrahedron method does not include variations of the Fermi             |
|     occupations, so forces and stress will be inaccurate. We suggest        |
|     using a different smearing scheme ISMEAR = 1 or 2 for metals in         |
|     relaxations.                                                            |

 total charge

[...]

 magnetization (x)

# of ion       s       p       d       tot
    1       -0.007  -0.026   0.636   0.602

 BZINTS: Fermi energy:    9.299065;   10.000000 electrons
         Band energy: 0.701008E+02;  BLOECHL correction:   -0.034323