 vasp.6.3.0 20Jan22 (build Feb 01 2022 16:52:37) complex

 executed on           TETRA_NSC1 date 2022.02.23  15:54:22

 INCAR:
   SYSTEM = clean (100) Ni surface
   ENMAX = 270
   ISMEAR = -5
   ALGO = Normal
   ISPIN = 2
   MAGMOM = 5*1
   LORBIT = 11

 POTCAR:    PAW_PBE Ni 02Aug2007
 POTCAR:    PAW_PBE Ni 02Aug2007
   VRHFIN =Ni:

   TITEL  = PAW_PBE Ni 02Aug2007
   POMASS =   58.690; ZVAL   =   10.000    mass and valenz
   ENMAX  =  269.532; ENMIN  =  202.149 eV

  PAW_PBE Ni 02Aug2007                  :

 POSCAR: fcc (100) surface
  positions in direct lattice
  velocities in cartesian coordinates
 exchange correlation table for  LEXCH =        8
   RHO(1)=    0.500       N(1)  =     2000
   RHO(2)=  100.500       N(2)  =     4000

 ion  position               nearest neighbor table
   1  0.000  0.000  0.000-   2 2.50   2 2.50   2 2.50   2 2.50
   2  0.500  0.500  0.100-   1 2.50   3 2.50   1 2.50   3 2.50   1 2.50   3 2.50   1 2.50   3 2.50

   3  0.000  0.000  0.200-   2 2.50   2 2.50   2 2.50   2 2.50   4 2.50   4 2.50   4 2.50   4 2.50

[...]

   5  0.000  0.000  0.396-   4 2.44   4 2.44   4 2.44   4 2.44

  LATTYP: Found a simple tetragonal cell.
 ALAT       =     2.4960869376
 C/A-ratio  =     7.0710678119

  Lattice vectors:

 A1 = (   1.7650000000,   1.7650000000,   0.0000000000)
 A2 = (  -1.7650000000,   1.7650000000,   0.0000000000)
 A3 = (   0.0000000000,   0.0000000000,  17.6500000000)

Analysis of symmetry for initial positions (statically):
 Subroutine PRICEL returns:
 Original cell was already a primitive cell.

 Routine SETGRP: Setting up the symmetry group for a
 simple tetragonal supercell.

 Subroutine GETGRP returns: Found  8 space group operations
 (whereof  8 operations were pure point group operations)
 out of a pool of 16 trial point group operations.

The static configuration has the point symmetry C_4v.

Analysis of symmetry for dynamics (positions and initial velocities):
 Subroutine PRICEL returns:
 Original cell was already a primitive cell.

[...]

The dynamic configuration has the point symmetry C_4v.

Analysis of constrained symmetry for selective dynamics:
 Subroutine PRICEL returns:
 Original cell was already a primitive cell.

[...]

The constrained configuration has the point symmetry C_4v.

Analysis of structural, dynamic, and magnetic symmetry:
 Subroutine PRICEL returns:
 Original cell was already a primitive cell.

 Routine SETGRP: Setting up the symmetry group for a
 simple tetragonal supercell.

 Subroutine GETGRP returns: Found  8 space group operations
 (whereof  8 operations were pure point group operations)
 out of a pool of 16 trial point group operations.

The overall configuration has the point symmetry C_4v.

 Subroutine INISYM returns: Found  8 space group operations
 (whereof  8 operations are pure point group operations),
 and found     1 'primitive' translations

                                     Primitive cell

  volume of cell :     109.9674

  direct lattice vectors                    reciprocal lattice vectors
     1.765000000  1.765000000  0.000000000     0.283286119  0.283286119  0.000000000
    -1.765000000  1.765000000  0.000000000    -0.283286119  0.283286119  0.000000000
     0.000000000  0.000000000 17.650000000     0.000000000  0.000000000  0.056657224

  length of vectors
     2.496086938  2.496086938 17.650000000     0.400627071  0.400627071  0.056657224

  position of ions in fractional coordinates (direct lattice)
     0.000000000  0.000000000  0.000000000
     0.500000000  0.500000000  0.100000000
     0.000000000  0.000000000  0.200000000
     0.500000000  0.500000000  0.300209984
     0.000000000  0.000000000  0.395507253

  ion indices of the primitive-cell ions
   primitive index   ion index
                 1           1
                 2           2
                 3           3
                 4           4
                 5           5

 KPOINTS: k-points

Automatic generation of k-mesh.
 Grid dimensions read from file:
 generate k-points for:    9    9    1

 Generating k-lattice:

  Cartesian coordinates                     Fractional coordinates (reciprocal lattice)
     0.031476235  0.031476235  0.000000000     0.111111111  0.000000000  0.000000000
    -0.031476235  0.031476235  0.000000000     0.000000000  0.111111111  0.000000000
     0.000000000  0.000000000  0.056657224     0.000000000  0.000000000  1.000000000

  Length of vectors
     0.044514119  0.044514119  0.056657224

  Shift w.r.t. Gamma in fractional coordinates (k-lattice)
     0.000000000  0.000000000  0.000000000

 TETIRR: Found    111 inequivalent tetrahedra from      486

 Subroutine IBZKPT returns following result:

 Found     15 irreducible k-points:

 Following reciprocal coordinates:
            Coordinates               Weight
  0.000000  0.000000  0.000000      1.000000
  0.111111 -0.000000  0.000000      4.000000
  0.222222 -0.000000  0.000000      4.000000
  0.333333  0.000000  0.000000      4.000000
  0.444444 -0.000000  0.000000      4.000000
  0.111111  0.111111  0.000000      4.000000
  0.222222  0.111111  0.000000      8.000000
  0.333333  0.111111  0.000000      8.000000
  0.444444  0.111111  0.000000      8.000000
  0.222222  0.222222  0.000000      4.000000
  0.333333  0.222222  0.000000      8.000000
  0.444444  0.222222  0.000000      8.000000
  0.333333  0.333333  0.000000      4.000000
  0.444444  0.333333  0.000000      8.000000
  0.444444  0.444444  0.000000      4.000000

 Following cartesian coordinates:
            Coordinates               Weight
  0.000000  0.000000  0.000000      1.000000
  0.111111  0.111111  0.000000      4.000000
  0.222222  0.222222  0.000000      4.000000
  0.333333  0.333333  0.000000      4.000000
  0.444444  0.444444  0.000000      4.000000
 -0.000000  0.222222  0.000000      4.000000
  0.111111  0.333333  0.000000      8.000000
  0.222222  0.444444  0.000000      8.000000
  0.333333  0.555556  0.000000      8.000000
 -0.000000  0.444444  0.000000      4.000000
  0.111111  0.555556  0.000000      8.000000
  0.222222  0.666667  0.000000      8.000000
 -0.000000  0.666667  0.000000      4.000000
  0.111111  0.777778  0.000000      8.000000
 -0.000000  0.888889  0.000000      4.000000

 SYSTEM =  clean (100) Ni surface
 POSCAR =  fcc (100) surface

 Startparameter for this run:
   NWRITE =      2    write-flag & timer
   PREC   = normal    normal or accurate (medium, high low for compatibility)
   ISTART =      0    job   : 0-new  1-cont  2-samecut
   ICHARG =      2    charge: 1-file 2-atom 10-const
   ISPIN  =      2    spin polarized calculation?
   LNONCOLLINEAR =      F non collinear calculations
   LSORBIT =      F    spin-orbit coupling
   INIWAV =      1    electr: 0-lowe 1-rand  2-diag
   LASPH  =      F    aspherical Exc in radial PAW
 Electronic Relaxation 1
   ENCUT  =  270.0 eV  19.84 Ry    4.45 a.u.   3.34  3.34 23.65*2*pi/ulx,y,z
   ENINI  =  270.0     initial cutoff
   ENAUG  =  544.6 eV  augmentation charge cutoff
   NELM   =     60;   NELMIN=  2; NELMDL= -5     # of ELM steps
   EDIFF  = 0.1E-03   stopping-criterion for ELM
   LREAL  =      F    real-space projection
   NLSPLINE    = F    spline interpolate recip. space projectors
   LCOMPAT=      F    compatible to vasp.4.4
   GGA_COMPAT  = T    GGA compatible to vasp.4.4-vasp.4.6
   LMAXPAW     = -100 max onsite density
   LMAXMIX     =    2 max onsite mixed and CHGCAR
   VOSKOWN=      0    Vosko Wilk Nusair interpolation
   ROPT   =    0.00000
 Ionic relaxation
   EDIFFG = 0.1E-02   stopping-criterion for IOM
   NSW    =      0    number of steps for IOM
   NBLOCK =      1;   KBLOCK =      1    inner block; outer block
   IBRION =     -1    ionic relax: 0-MD 1-quasi-New 2-CG
   NFREE  =      0    steps in history (QN), initial steepest desc. (CG)
   ISIF   =      2    stress and relaxation
   IWAVPR =     10    prediction:  0-non 1-charg 2-wave 3-comb
   ISYM   =      2    0-nonsym 1-usesym 2-fastsym
   LCORR  =      T    Harris-Foulkes like correction to forces

   POTIM  = 0.5000    time-step for ionic-motion
   TEIN   =    0.0    initial temperature
   TEBEG  =    0.0;   TEEND  =   0.0 temperature during run
   SMASS  =  -3.00    Nose mass-parameter (am)
   estimated Nose-frequenzy (Omega)   =  0.10E-29 period in steps = 0.13E+47 mass=  -0.142E-27a.u.
   SCALEE = 1.0000    scale energy and forces
   NPACO  =    256;   APACO  = 10.0  distance and # of slots for P.C.
   PSTRESS=    0.0 pullay stress

  Mass of Ions in am
   POMASS =  58.69
  Ionic Valenz
   ZVAL   =  10.00
  Atomic Wigner-Seitz radii
  virtual crystal weights
   VCA    =   1.00
   NELECT =      50.0000    total number of electrons
   NUPDOWN=      -1.0000    fix difference up-down

 DOS related values:
   EMIN   =  10.00;   EMAX   =-10.00  energy-range for DOS
   EFERMI =   0.00
   ISMEAR =    -5;   SIGMA  =   0.20  broadening in eV -4-tet -1-fermi 0-gaus

 Electronic relaxation 2 (details)
   IALGO  =     38    algorithm
   LDIAG  =      T    sub-space diagonalisation (order eigenvalues)
   LSUBROT=      F    optimize rotation matrix (better conditioning)
   TURBO    =      0    0=normal 1=particle mesh
   IRESTART =      0    0=no restart 2=restart with 2 vectors
   NREBOOT  =      0    no. of reboots
   NMIN     =      0    reboot dimension
   EREF     =   0.00    reference energy to select bands
   IMIX   =      4    mixing-type and parameters
     AMIX     =   0.40;   BMIX     =  1.00
     AMIX_MAG =   1.60;   BMIX_MAG =  1.00
     AMIN     =   0.10
     WC   =   100.;   INIMIX=   1;  MIXPRE=   1;  MAXMIX= -45

 Intra band minimization:
   WEIMIN = 0.0000     energy-eigenvalue tresh-hold
   EBREAK =  0.69E-06  absolut break condition
   DEPER  =   0.30     relativ break condition

   TIME   =   0.40     timestep for ELM

  volume/ion in A,a.u.               =      21.99       148.42
  Fermi-wavevector in a.u.,A,eV,Ry     =   1.258858  2.378897 21.561476  1.584724
  Thomas-Fermi vector in A             =   2.392447

 Write flags
   LWAVE        =      T    write WAVECAR
   LDOWNSAMPLE  =      F    k-point downsampling of WAVECAR
   LCHARG       =      T    write CHGCAR
   LVTOT        =      F    write LOCPOT, total local potential
   LVHAR        =      F    write LOCPOT, Hartree potential only
   LELF         =      F    write electronic localiz. function (ELF)
   LORBIT       =     11    0 simple, 1 ext, 2 COOP (PROOUT), +10 PAW based schemes

 Dipole corrections
   LMONO  =      F    monopole corrections only (constant potential shift)
   LDIPOL =      F    correct potential (dipole corrections)
   IDIPOL =      0    1-x, 2-y, 3-z, 4-all directions
   EPSILON=  1.0000000 bulk dielectric constant

 Exchange correlation treatment:
   GGA     =    --    GGA type
   VOSKOWN =     0    Vosko Wilk Nusair interpolation
   LHFCALC =     F    Hartree Fock is set to
   LHFONE  =     F    Hartree Fock one center treatment
   AEXX    =    0.0000 exact exchange contribution

 Linear response parameters
   LEPSILON=     F    determine dielectric tensor
   LRPA    =     F    only Hartree local field effects (RPA)
   LNABLA  =     F    use nabla operator in PAW spheres
   LVEL    =     F    velocity operator in full k-point grid
[...]
   0.33333333  0.33333333  0.00000000       0.049
   0.44444444  0.33333333  0.00000000       0.099
   0.44444444  0.44444444  0.00000000       0.049

 position of ions in fractional coordinates (direct lattice)
   0.00000000  0.00000000  0.00000000
   0.50000000  0.50000000  0.10000000
   0.00000000  0.00000000  0.20000000
   0.50000000  0.50000000  0.30020998
   0.00000000  0.00000000  0.39550725

 position of ions in cartesian coordinates  (Angst):
   0.00000000  0.00000000  0.00000000
   0.00000000  1.76500000  1.76500000
   0.00000000  0.00000000  3.53000000
   0.00000000  1.76500000  5.29870622
   0.00000000  0.00000000  6.98070302

 k-point   1 :   0.0000 0.0000 0.0000  plane waves:    1131
 k-point   2 :   0.1111-0.0000 0.0000  plane waves:    1131
 k-point   3 :   0.2222-0.0000 0.0000  plane waves:    1109
 k-point   4 :   0.3333 0.0000 0.0000  plane waves:    1109
 k-point   5 :   0.4444-0.0000 0.0000  plane waves:    1104
 k-point   6 :   0.1111 0.1111 0.0000  plane waves:    1121
 k-point   7 :   0.2222 0.1111 0.0000  plane waves:    1104
 k-point   8 :   0.3333 0.1111 0.0000  plane waves:    1106
 k-point   9 :   0.4444 0.1111 0.0000  plane waves:    1120
 k-point  10 :   0.2222 0.2222 0.0000  plane waves:    1113
 k-point  11 :   0.3333 0.2222 0.0000  plane waves:    1108
 k-point  12 :   0.4444 0.2222 0.0000  plane waves:    1109
 k-point  13 :   0.3333 0.3333 0.0000  plane waves:    1099
 k-point  14 :   0.4444 0.3333 0.0000  plane waves:    1088
 k-point  15 :   0.4444 0.4444 0.0000  plane waves:    1088

 maximum and minimum number of plane-waves per node :      1131     1088

 maximum number of plane-waves:      1131
 maximum index in each direction:
   IXMAX=    3   IYMAX=    3   IZMAX=   23
   IXMIN=   -3   IYMIN=   -3   IZMIN=  -23

 serial   3D FFT for wavefunctions
 parallel 3D FFT for charge:
    minimum data exchange during FFTs selected (reduces bandwidth)

 Broyden mixing: mesh for mixing (old mesh)
   NGX =  7   NGY =  7   NGZ = 47
  (NGX  = 20   NGY  = 20   NGZ  =144)
  gives a total of   2303 points

 initial charge density was supplied:
 charge density of overlapping atoms calculated
 number of electron      50.0000000 magnetization       5.0000000
 keeping initial charge density in first step

 Maximum index for augmentation-charges          540 (set IRDMAX)

 First call to EWALD:  gamma=   0.370
 Maximum number of real-space cells 5x 5x 1
 Maximum number of reciprocal cells 2x 2x 9

--------------------------------------- Iteration      1(   1)  ---------------------------------------

 BZINTS: Fermi energy:   10.828776;   50.000000 electrons
         Band energy: 0.327820E+03;  BLOECHL correction:   -0.079165

 eigenvalue-minimisations  :  2160
 total energy-change (2. order) : 0.2603716E+03  (-0.1536121E+04)
 number of electron      50.0000000 magnetization       5.0000000
 augmentation part       50.0000000 magnetization       5.0000000

 Free energy of the ion-electron system (eV)
  alpha Z        PSCENC =       115.94204576
  Ewald energy   TEWEN  =      9453.09366082
  -Hartree energ DENC   =    -14847.89923159
  -exchange      EXHF   =         0.00000000
  -V(xc)+E(xc)   XCENC  =       157.42249095
  PAW double counting   =      4814.16586801    -5148.35356137
  entropy T*S    EENTRO =         0.00000000
  eigenvalues    EBANDS =       327.81991367
  atomic energy  EATOM  =      5388.18037335
  Solvation  Ediel_sol  =         0.00000000
  free energy    TOTEN  =       260.37155959 eV

  energy without entropy =      260.37155959  energy(sigma->0) =      260.37155959

[...]

 eigenvalue-minimisations  :  2168
 total energy-change (2. order) :-0.2742330E+03  (-0.2578963E+03)
 number of electron      50.0000000 magnetization       5.0000000
 augmentation part       50.0000000 magnetization       5.0000000

[...]

 Broyden mixing:
  rms(total) = 0.20559E+01    rms(broyden)= 0.20550E+01
  rms(prec ) = 0.22090E+01
  weight for this iteration     100.00

[...]

 BZINTS: Fermi energy:    1.072029;   50.000000 electrons
         Band energy:-0.736903E+02;  BLOECHL correction:   -0.097875

[...]

 eigenvalues of (default mixing * dielectric matrix)
  average eigenvalue GAMMA=   0.3107
  0.3107

[...]

 WARNING: Fermi level nearly degenerate with energies of tetrahedron. This may
     result in numerical instabilities because the density changes by tiny
     changes of the Fermi energy. If the calculation converges, the total
     energy will still be reliable. If you notice convergence issues, you can
     try to
     *) Use a Gamma centered k-point grid
     *) Use tetrahedron method without corrections ISMEAR = -4
     *) Don't use tetrahedron method
        ISMEAR = 0 for semiconductors, 1 or 2 for metals

[...]

 WARNING: Fermi level nearly degenerate with energies of tetrahedron. This may
     result in numerical instabilities because the density changes by tiny
     changes of the Fermi energy. If the calculation converges, the total
     energy will still be reliable. If you notice convergence issues, you can
     try to
     *) Use a Gamma centered k-point grid
     *) Use tetrahedron method without corrections ISMEAR = -4
     *) Don't use tetrahedron method
        ISMEAR = 0 for semiconductors, 1 or 2 for metals

[...]

 BZINTS: Fermi energy:    2.157866;   50.000000 electrons
         Band energy:-0.519413E+01;  BLOECHL correction:   -0.094532

[...]

 eigenvalue-minimisations  :  1680
 total energy-change (2. order) : 0.1434088E-02  (-0.4573495E-04)
 number of electron      49.9998830 magnetization       3.1410570
 augmentation part       30.9104374 magnetization       3.0001314

[...]

 Broyden mixing:
  rms(total) = 0.14102E-01    rms(broyden)= 0.14099E-01
  rms(prec ) = 0.17223E-01
  weight for this iteration     100.00

 eigenvalues of (default mixing * dielectric matrix)
  average eigenvalue GAMMA=   1.0574
  6.3092  2.3504  2.3504  1.2219  1.2219  0.9000  0.9000  1.0081  1.0081  0.8987
  0.8987  0.7937  0.7937  0.0518  0.1496  0.1496  0.1260  0.7152  0.7152  0.5758
  0.5758  0.6140  0.5245  0.5245

[...]

--------------------------------------- Iteration      1(  30)  ---------------------------------------

[...]

 eigenvalue-minimisations  :  1524
 total energy-change (2. order) :-0.9814495E-04  (-0.1467837E-04)
 number of electron      49.9998830 magnetization       3.1330888
 augmentation part       30.9104300 magnetization       2.9941090

 Free energy of the ion-electron system (eV)
  alpha Z        PSCENC =       115.94204576
  Ewald energy   TEWEN  =      9453.09366082
  -Hartree energ DENC   =    -14802.24561742
  -exchange      EXHF   =         0.00000000
  -V(xc)+E(xc)   XCENC  =       152.65821187
  PAW double counting   =      5573.56785659    -5914.87294460
  entropy T*S    EENTRO =         0.00000000
  eigenvalues    EBANDS =         8.10378315
  atomic energy  EATOM  =      5388.18037335
  Solvation  Ediel_sol  =         0.00000000
  free energy    TOTEN  =       -25.57263048 eV

  energy without entropy =      -25.57263048  energy(sigma->0) =      -25.57263048

 average (electrostatic) potential at core
  the test charge radii are     0.9791
  (the norm of the test charge is              1.0000)
       1 -88.7772       2 -89.0951       3 -89.0847       4 -89.1469       5 -88.8141

 E-fermi :   2.2694     XC(G=0):  -7.6523     alpha+bet : -8.1440

 Fermi energy:         2.2694464960

 spin component 1

 k-point     1 :       0.0000    0.0000    0.0000
  band No.  band energies     occupation
      1      -6.2620      1.00000
      2      -5.0769      1.00000
      3      -3.3954      1.00000
      4      -2.2482      1.00000
      5      -2.1645      1.00000
      6      -1.7248      1.00000
      7      -1.3636      1.00000
      8      -0.8509      1.00000
      9      -0.3711      1.00000
     10      -0.1344      1.00000
     11      -0.0100      1.00000
     12      -0.0100      1.00000
     13       0.3591      1.00000
     14       0.3591      1.00000
     15       0.5476      1.00000
     16       0.8229      1.00000
     17       0.9520      1.00000
     18       0.9520      1.00000
     19       1.0120      1.00000
     20       1.0459      1.00000
     21       1.1238      1.00000
     22       1.2054      1.00000
     23       1.4748      1.00000
     24       1.4748      1.00000
     25       1.4761      1.00000
     26       1.6450      1.00000
     27       1.7191      1.00000
     28       1.7518      1.00000
     29       1.7518      1.01359
     30       2.8603      0.00000
     31       4.2167      0.00000
     32       6.6151      0.00000
     33       8.0850      0.00000
     34       9.8767      0.00000
     35      13.0519      0.00000
     36      13.7597      0.00000

[...]

 k-point    15 :       0.4444    0.4444    0.0000
  band No.  band energies     occupation
      1      -2.1356      1.00000
      2      -2.0048      1.00000
      3      -1.7008      1.00000
      4      -1.6715      1.00000
      5      -1.6520      1.00000
      6      -1.3852      1.00000
      7      -1.2422      1.00000
      8      -1.2127      1.00000
      9      -1.1101      1.00000
     10      -0.4454      1.00000
     11      -0.4085      1.00000
     12       0.5104      1.00000
     13       0.5517      1.00000
     14       1.1436      1.00000
     15       1.2482      1.00000
     16       1.3928      1.00000
     17       1.4427      1.00000
     18       1.5367      1.00000
     19       1.5892      1.00000
     20       1.6557      1.00000
     21       1.6760      1.00000
     22       1.7421      1.00000
     23       1.7741      1.00000
     24       1.9203      1.00000
     25       1.9629      1.00000
     26       4.6521     -0.01366
     27       5.8850      0.00000
     28       6.2849      0.00000
     29       7.6001      0.00000
     30       8.3330      0.00000
     31       9.9213      0.00000
     32      10.5193      0.00000
     33      11.5912      0.00000
     34      12.1991      0.00000
     35      12.5399      0.00000
     36      12.5789      0.00000
 Fermi energy:         2.2694464960

 spin component 2

[...]

 k-point    15 :       0.4444    0.4444    0.0000
  band No.  band energies     occupation
      1      -1.7607      1.00000
      2      -1.6543      1.00000
      3      -1.2720      1.00000
      4      -1.0855      1.00000
      5      -1.0765      1.00000
      6      -0.9032      1.00000
      7      -0.6660      1.00000
      8      -0.5988      1.00000
      9      -0.5893      1.00000
     10       0.1641      1.00000
     11       0.2064      1.00000
     12       1.1790      1.00000
     13       1.2235      1.00000
     14       1.7433      1.00000
     15       1.8119      1.00000
     16       2.0901      1.00000
     17       2.1630      1.00000
     18       2.2174      1.00000
     19       2.2393      1.00000
     20       2.3152      0.47455
     21       2.3774      0.13504
     22       2.4815     -0.01038
     23       2.5338     -0.01600
     24       2.7276      0.00000
     25       2.7875      0.00000
     26       4.7557      0.00000
     27       5.9651      0.00000
     28       6.4484      0.00000
     29       7.7142      0.00000
     30       8.4921      0.00000
     31      10.0410      0.00000
     32      10.6428      0.00000
     33      11.8135      0.00000
     34      12.4136      0.00000
     35      12.6374      0.00000
     36      12.7185      0.00000

 soft charge-density along one line, spin component           1
         0         1         2         3         4         5         6         7         8         9
 total charge-density along one line

 soft charge-density along one line, spin component           2
         0         1         2         3         4         5         6         7         8         9
 total charge-density along one line

------------------------ aborting loop because EDIFF is reached ----------------------------------------

 total charge

# of ion       s       p       d       tot
    1        0.464   0.328   8.314   9.107
    2        0.488   0.483   8.312   9.283
    3        0.491   0.485   8.317   9.294
    4        0.498   0.505   8.318   9.321
    5        0.476   0.349   8.327   9.153
tot          2.418   2.150  41.589  46.158

 magnetization (x)

[...]

  FORCE on cell =-STRESS in cart. coord.  units (eV):
  Direction    XX          YY          ZZ          XY          YZ          ZX
  Alpha Z   115.94205   115.94205   115.94205
  Ewald   12520.52130 12520.52130-15587.95298     0.00000    -0.00000     0.00000
  Hartree 14018.21088 14018.21088-13234.07277    -0.00000    -0.00000     0.00000
  E(xc)    -274.37773  -274.37773  -274.90780     0.00000     0.00000     0.00000
  Local  -27605.86045-27605.86045 27749.60524     0.00000    -0.00000     0.00000
  n-local   -44.68577   -46.66442   -47.05273   -14.22722    -0.00000     0.00001
  augment   879.54440   879.54440   884.22261    -0.00000     0.00000     0.00000
  Kinetic   382.10939   393.51577   391.87145     8.08343     0.00000    -0.00001
  Fock        0.00000     0.00000     0.00000     0.00000     0.00000     0.00000
  Total      -3.88208    -3.88208    -2.34493     0.00000     0.00000     0.00000
  in kB     -56.56013   -56.56013   -34.16466     0.00000     0.00000     0.00000

 VOLUME and BASIS-vectors are now :
  energy-cutoff  :      270.00
  volume of cell :      109.97
      direct lattice vectors                 reciprocal lattice vectors
     1.765000000  1.765000000  0.000000000     0.283286119  0.283286119  0.000000000
    -1.765000000  1.765000000  0.000000000    -0.283286119  0.283286119  0.000000000
     0.000000000  0.000000000 17.650000000     0.000000000  0.000000000  0.056657224

  length of vectors
     2.496086938  2.496086938 17.650000000     0.400627071  0.400627071  0.056657224

 FORCES acting on ions
    electron-ion (+dipol)            ewald-force                    non-local-force                 convergence-correction
   -.245E-13 0.660E-13 0.286E+04   0.910E-14 0.238E-14 -.286E+04   -.415E-22 -.379E-22 -.248E+01   0.661E-13 0.329E-14 -.150E+00
   0.619E-14 -.156E-12 0.147E+04   -.119E-13 -.189E-13 -.147E+04   0.724E-22 0.335E-22 -.172E+00   -.154E-13 -.144E-12 -.339E+00
   -.191E-13 0.581E-13 0.129E+02   0.420E-14 0.935E-14 -.131E+02   -.413E-22 -.381E-22 0.384E-01   0.606E-13 0.350E-13 0.150E+00
   -.288E-12 0.633E-13 -.145E+04   -.107E-13 -.133E-13 0.145E+04   0.258E-22 0.139E-22 0.103E+00   0.179E-13 -.826E-13 0.257E+00
   0.174E-12 -.108E-12 -.289E+04   0.918E-14 -.713E-14 0.289E+04   0.811E-24 0.124E-22 0.236E+01   -.476E-13 0.102E-12 -.840E-01
   -.151E-12 -.772E-13 0.305E+00   -.934E-16 -.275E-13 0.455E-12   0.161E-22 -.161E-22 -.153E+00   0.816E-13 -.862E-13 -.166E+00

 POSITION                                       TOTAL-FORCE (eV/Angst)
      0.00000      0.00000      0.00000         0.000000      0.000000      0.417390
      0.00000      1.76500      1.76500        -0.000000     -0.000000     -0.394515
      0.00000      0.00000      3.53000        -0.000000      0.000000     -0.023472
      0.00000      1.76500      5.29871        -0.000000     -0.000000     -0.004217
      0.00000      0.00000      6.98070         0.000000      0.000000      0.004814
    total drift:                               -0.000000     -0.000000     -0.014620

  FREE ENERGIE OF THE ION-ELECTRON SYSTEM (eV)
  free  energy   TOTEN  =       -25.57263048 eV

  energy  without entropy=      -25.57263048  energy(sigma->0) =      -25.57263048

 writing wavefunctions
|           W    W    AA    RRRRR   N    N  II  N    N   GGGG   !!!           |
|           W    W   A  A   R    R  NN   N  II  NN   N  G    G  !!!           |
|           W    W  A    A  R    R  N N  N  II  N N  N  G       !!!           |
|           W WW W  AAAAAA  RRRRR   N  N N  II  N  N N  G  GGG   !            |
|           WW  WW  A    A  R   R   N   NN  II  N   NN  G    G                |
|           W    W  A    A  R    R  N    N  II  N    N   GGGG   !!!           |
|     Tetrahedron method does not include variations of the Fermi             |
|     occupations, so forces and stress will be inaccurate. We suggest        |
|     using a different smearing scheme ISMEAR = 1 or 2 for metals in         |
|     relaxations.                                                            |

 total charge

[...]

 magnetization (x)

# of ion       s       p       d       tot
    1       -0.004  -0.022   0.741   0.716
    2       -0.008  -0.026   0.639   0.605
    3       -0.008  -0.027   0.635   0.600
    4       -0.008  -0.026   0.641   0.606
    5       -0.004  -0.022   0.727   0.701
tot         -0.032  -0.122   3.384   3.229

 BZINTS: Fermi energy:    2.269446;   50.000000 electrons
         Band energy: 0.810378E+01;  BLOECHL correction:   -0.115127