 vasp.6.3.0 20Jan22 (build Feb 01 2022 16:52:37) complex

 executed on           TETRA_NSC1 date 2022.02.23  11:09:26

 INCAR:
   SYSTEM = diamond Si
   ISMEAR = 0
   SIGMA = 0.1
   ENMAX = 240
   IBRION = 2
   ISIF = 3
   NSW = 15
   EDIFF = 0.1E-04
   EDIFFG = -0.01

 POTCAR:    PAW_PBE Si 05Jan2001
 POTCAR:    PAW_PBE Si 05Jan2001
   VRHFIN =Si: s2p2

   TITEL  = PAW_PBE Si 05Jan2001
   POMASS =   28.085; ZVAL   =    4.000    mass and valenz
   ENMAX  =  245.345; ENMIN  =  184.009 eV

  PAW_PBE Si 05Jan2001                  :

 POSCAR: cubic diamond Si
  positions in direct lattice
 exchange correlation table for  LEXCH =        8
   RHO(1)=    0.500       N(1)  =     2000
   RHO(2)=  100.500       N(2)  =     4000

 ion  position               nearest neighbor table
   1  0.875  0.875  0.875-   2 2.38   2 2.38   2 2.38   2 2.38
   2  0.125  0.125  0.125-   1 2.38   1 2.38   1 2.38   1 2.38

  LATTYP: Found a face centered cubic cell.
 ALAT       =     5.5000000000

  Lattice vectors:

 A1 = (   0.0000000000,   2.7500000000,   2.7500000000)
 A2 = (   2.7500000000,   0.0000000000,   2.7500000000)
 A3 = (   2.7500000000,   2.7500000000,   0.0000000000)

Analysis of symmetry for initial positions (statically):
 Subroutine PRICEL returns:
 Original cell was already a primitive cell.

 Routine SETGRP: Setting up the symmetry group for a
 face centered cubic supercell.

 Subroutine GETGRP returns: Found 48 space group operations
 (whereof 12 operations were pure point group operations)
 out of a pool of 48 trial point group operations.

The static configuration has the point symmetry D_3d.
 The point group associated with its full space group is O_h .

Analysis of symmetry for dynamics (positions and initial velocities):
 Subroutine PRICEL returns:
 Original cell was already a primitive cell.

 Routine SETGRP: Setting up the symmetry group for a
 face centered cubic supercell.

 Subroutine GETGRP returns: Found 48 space group operations
 (whereof 12 operations were pure point group operations)
 out of a pool of 48 trial point group operations.

The dynamic configuration has the point symmetry D_3d.
 The point group associated with its full space group is O_h .

 Subroutine INISYM returns: Found 48 space group operations
 (whereof 12 operations are pure point group operations),
 and found     1 'primitive' translations

                                     Primitive cell

  volume of cell :      41.5938

  direct lattice vectors                    reciprocal lattice vectors
     0.000000000  2.750000000  2.750000000    -0.181818182  0.181818182  0.181818182
     2.750000000  0.000000000  2.750000000     0.181818182 -0.181818182  0.181818182
     2.750000000  2.750000000  0.000000000     0.181818182  0.181818182 -0.181818182

  length of vectors
     3.889087297  3.889087297  3.889087297     0.314918329  0.314918329  0.314918329

  position of ions in fractional coordinates (direct lattice)
     0.875000000  0.875000000  0.875000000
     0.125000000  0.125000000  0.125000000

  ion indices of the primitive-cell ions
   primitive index   ion index
                 1           1
                 2           2

 KPOINTS: k-points

Automatic generation of k-mesh.
 Grid dimensions read from file:
 generate k-points for:   11   11   11

 Generating k-lattice:

  Cartesian coordinates                     Fractional coordinates (reciprocal lattice)
    -0.016528926  0.016528926  0.016528926     0.090909091  0.000000000  0.000000000
     0.016528926 -0.016528926  0.016528926     0.000000000  0.090909091  0.000000000
     0.016528926  0.016528926 -0.016528926     0.000000000  0.000000000  0.090909091

  Length of vectors
     0.028628939  0.028628939  0.028628939

  Shift w.r.t. Gamma in fractional coordinates (k-lattice)
     0.000000000  0.000000000  0.000000000

 Subroutine IBZKPT returns following result:

 Found     56 irreducible k-points:

 Following reciprocal coordinates:
            Coordinates               Weight
  0.000000  0.000000  0.000000      1.000000
  0.090909  0.000000  0.000000      8.000000
  0.181818 -0.000000  0.000000      8.000000
  0.272727  0.000000 -0.000000      8.000000
  0.363636 -0.000000  0.000000      8.000000
  0.454545  0.000000 -0.000000      8.000000
  0.090909  0.090909 -0.000000      6.000000
  0.181818  0.090909  0.000000     24.000000
  0.272727  0.090909  0.000000     24.000000
  0.363636  0.090909 -0.000000     24.000000
  0.454545  0.090909  0.000000     24.000000
 -0.454545  0.090909  0.000000     24.000000
 -0.363636  0.090909 -0.000000     24.000000
 -0.272727  0.090909 -0.000000     24.000000
 -0.181818  0.090909  0.000000     24.000000
 -0.090909  0.090909 -0.000000     12.000000
  0.181818  0.181818 -0.000000      6.000000
  0.272727  0.181818  0.000000     24.000000
  0.363636  0.181818  0.000000     24.000000
  0.454545  0.181818  0.000000     24.000000
 -0.454545  0.181818  0.000000     24.000000
 -0.363636  0.181818  0.000000     24.000000
 -0.272727  0.181818  0.000000     24.000000
 -0.181818  0.181818 -0.000000     12.000000
  0.272727  0.272727 -0.000000      6.000000
  0.363636  0.272727  0.000000     24.000000
  0.454545  0.272727 -0.000000     24.000000
 -0.454545  0.272727  0.000000     24.000000
 -0.363636  0.272727  0.000000     24.000000
 -0.272727  0.272727  0.000000     12.000000
  0.363636  0.363636 -0.000000      6.000000
  0.454545  0.363636 -0.000000     24.000000
 -0.454545  0.363636 -0.000000     24.000000
 -0.363636  0.363636 -0.000000     12.000000
  0.454545  0.454545 -0.000000      6.000000
 -0.454545  0.454545  0.000000     12.000000
  0.272727  0.181818  0.090909     24.000000
  0.363636  0.181818  0.090909     48.000000
  0.454545  0.181818  0.090909     48.000000
 -0.454545  0.181818  0.090909     48.000000
  0.363636  0.272727  0.090909     24.000000
  0.454545  0.272727  0.090909     48.000000
 -0.454545  0.272727  0.090909     48.000000
 -0.363636  0.272727  0.090909     48.000000
 -0.272727  0.272727  0.090909     48.000000
 -0.181818  0.272727  0.090909     24.000000
  0.454545  0.363636  0.090909     24.000000
 -0.454545  0.363636  0.090909     48.000000
 -0.363636  0.363636  0.090909     48.000000
 -0.272727  0.363636  0.090909     24.000000
 -0.454545  0.454545  0.090909     24.000000
 -0.363636  0.454545  0.090909     24.000000
 -0.454545  0.363636  0.181818     24.000000
 -0.363636  0.363636  0.181818     48.000000
 -0.363636  0.454545  0.181818     24.000000
 -0.272727  0.454545  0.181818     24.000000

 Following cartesian coordinates:
            Coordinates               Weight
  0.000000  0.000000  0.000000      1.000000
 -0.090909  0.090909  0.090909      8.000000
 -0.181818  0.181818  0.181818      8.000000
 -0.272727  0.272727  0.272727      8.000000
 -0.363636  0.363636  0.363636      8.000000
 -0.454545  0.454545  0.454545      8.000000
 -0.000000  0.000000  0.181818      6.000000
 -0.090909  0.090909  0.272727     24.000000
 -0.181818  0.181818  0.363636     24.000000
 -0.272727  0.272727  0.454545     24.000000
 -0.363636  0.363636  0.545455     24.000000
  0.545455 -0.545455 -0.363636     24.000000
  0.454545 -0.454545 -0.272727     24.000000
  0.363636 -0.363636 -0.181818     24.000000
  0.272727 -0.272727 -0.090909     24.000000
  0.181818 -0.181818 -0.000000     12.000000
 -0.000000  0.000000  0.363636      6.000000
 -0.090909  0.090909  0.454545     24.000000
 -0.181818  0.181818  0.545455     24.000000
 -0.272727  0.272727  0.636364     24.000000
  0.636364 -0.636364 -0.272727     24.000000
  0.545455 -0.545455 -0.181818     24.000000
  0.454545 -0.454545 -0.090909     24.000000
  0.363636 -0.363636 -0.000000     12.000000
 -0.000000 -0.000000  0.545455      6.000000
 -0.090909  0.090909  0.636364     24.000000
 -0.181818  0.181818  0.727273     24.000000
  0.727273 -0.727273 -0.181818     24.000000
  0.636364 -0.636364 -0.090909     24.000000
  0.545455 -0.545455 -0.000000     12.000000
 -0.000000  0.000000  0.727273      6.000000
 -0.090909  0.090909  0.818182     24.000000
  0.818182 -0.818182 -0.090909     24.000000
  0.727273 -0.727273 -0.000000     12.000000
 -0.000000  0.000000  0.909091      6.000000
  0.909091 -0.909091 -0.000000     12.000000
  0.000000  0.181818  0.363636     24.000000
 -0.090909  0.272727  0.454545     48.000000
 -0.181818  0.363636  0.545455     48.000000
  0.727273 -0.545455 -0.363636     48.000000
  0.000000  0.181818  0.545455     24.000000
 -0.090909  0.272727  0.636364     48.000000
  0.818182 -0.636364 -0.272727     48.000000
  0.727273 -0.545455 -0.181818     48.000000
  0.636364 -0.454545 -0.090909     48.000000
  0.545455 -0.363636  0.000000     24.000000
  0.000000  0.181818  0.727273     24.000000
  0.909091 -0.727273 -0.181818     48.000000
  0.818182 -0.636364 -0.090909     48.000000
  0.727273 -0.545455 -0.000000     24.000000
  1.000000 -0.818182 -0.090909     24.000000
  0.909091 -0.727273 -0.000000     24.000000
  1.000000 -0.636364 -0.272727     24.000000
  0.909091 -0.545455 -0.181818     48.000000
  1.000000 -0.636364 -0.090909     24.000000
  0.909091 -0.545455 -0.000000     24.000000

 SYSTEM =  diamond Si
 POSCAR =  cubic diamond Si

 Startparameter for this run:
   NWRITE =      2    write-flag & timer
   PREC   = normal    normal or accurate (medium, high low for compatibility)
   ISTART =      0    job   : 0-new  1-cont  2-samecut
   ICHARG =      2    charge: 1-file 2-atom 10-const
   ISPIN  =      1    spin polarized calculation?
   LNONCOLLINEAR =      F non collinear calculations
   LSORBIT =      F    spin-orbit coupling
   INIWAV =      1    electr: 0-lowe 1-rand  2-diag
   LASPH  =      F    aspherical Exc in radial PAW
 Electronic Relaxation 1
   ENCUT  =  240.0 eV  17.64 Ry    4.20 a.u.   4.91  4.91  4.91*2*pi/ulx,y,z
   ENINI  =  240.0     initial cutoff
   ENAUG  =  322.1 eV  augmentation charge cutoff
   NELM   =     60;   NELMIN=  2; NELMDL= -5     # of ELM steps
   EDIFF  = 0.1E-04   stopping-criterion for ELM
   LREAL  =      F    real-space projection
   NLSPLINE    = F    spline interpolate recip. space projectors
   LCOMPAT=      F    compatible to vasp.4.4
   GGA_COMPAT  = T    GGA compatible to vasp.4.4-vasp.4.6
   LMAXPAW     = -100 max onsite density
   LMAXMIX     =    2 max onsite mixed and CHGCAR
   VOSKOWN=      0    Vosko Wilk Nusair interpolation
   ROPT   =    0.00000
 Ionic relaxation
   EDIFFG = -.1E-01   stopping-criterion for IOM
   NSW    =     15    number of steps for IOM
   NBLOCK =      1;   KBLOCK =     15    inner block; outer block
   IBRION =      2    ionic relax: 0-MD 1-quasi-New 2-CG
   NFREE  =      1    steps in history (QN), initial steepest desc. (CG)
   ISIF   =      3    stress and relaxation
   IWAVPR =     11    prediction:  0-non 1-charg 2-wave 3-comb
   ISYM   =      2    0-nonsym 1-usesym 2-fastsym
   LCORR  =      T    Harris-Foulkes like correction to forces

   POTIM  = 0.5000    time-step for ionic-motion
   TEIN   =    0.0    initial temperature
   TEBEG  =    0.0;   TEEND  =   0.0 temperature during run
   SMASS  =  -3.00    Nose mass-parameter (am)
   estimated Nose-frequenzy (Omega)   =  0.10E-29 period in steps = 0.13E+47 mass=  -0.346E-27a.u.
[...]
   0.27272727  0.27272727 -0.00000000       0.005
   0.36363636  0.27272727  0.00000000       0.018
   0.45454545  0.27272727 -0.00000000       0.018
  -0.45454545  0.27272727  0.00000000       0.018
  -0.36363636  0.27272727  0.00000000       0.018
  -0.27272727  0.27272727  0.00000000       0.009
   0.36363636  0.36363636 -0.00000000       0.005
   0.45454545  0.36363636 -0.00000000       0.018
  -0.45454545  0.36363636 -0.00000000       0.018
  -0.36363636  0.36363636 -0.00000000       0.009
   0.45454545  0.45454545 -0.00000000       0.005
  -0.45454545  0.45454545  0.00000000       0.009
   0.27272727  0.18181818  0.09090909       0.018
   0.36363636  0.18181818  0.09090909       0.036
   0.45454545  0.18181818  0.09090909       0.036
  -0.45454545  0.18181818  0.09090909       0.036
   0.36363636  0.27272727  0.09090909       0.018
   0.45454545  0.27272727  0.09090909       0.036
  -0.45454545  0.27272727  0.09090909       0.036
  -0.36363636  0.27272727  0.09090909       0.036
  -0.27272727  0.27272727  0.09090909       0.036
  -0.18181818  0.27272727  0.09090909       0.018
   0.45454545  0.36363636  0.09090909       0.018
  -0.45454545  0.36363636  0.09090909       0.036
  -0.36363636  0.36363636  0.09090909       0.036
  -0.27272727  0.36363636  0.09090909       0.018
  -0.45454545  0.45454545  0.09090909       0.018
  -0.36363636  0.45454545  0.09090909       0.018
  -0.45454545  0.36363636  0.18181818       0.018
  -0.36363636  0.36363636  0.18181818       0.036
  -0.36363636  0.45454545  0.18181818       0.018
  -0.27272727  0.45454545  0.18181818       0.018

 position of ions in fractional coordinates (direct lattice)
   0.87500000  0.87500000  0.87500000
   0.12500000  0.12500000  0.12500000

 position of ions in cartesian coordinates  (Angst):
   4.81250000  4.81250000  4.81250000
   0.68750000  0.68750000  0.68750000

 k-point   1 :   0.0000 0.0000 0.0000  plane waves:     339
 k-point   2 :   0.0909 0.0000 0.0000  plane waves:     335
 k-point   3 :   0.1818-0.0000 0.0000  plane waves:     344
 k-point   4 :   0.2727 0.0000-0.0000  plane waves:     350
 k-point   5 :   0.3636-0.0000 0.0000  plane waves:     353
 k-point   6 :   0.4545 0.0000-0.0000  plane waves:     356
 k-point   7 :   0.0909 0.0909-0.0000  plane waves:     335
 k-point   8 :   0.1818 0.0909 0.0000  plane waves:     345
 k-point   9 :   0.2727 0.0909 0.0000  plane waves:     343
 k-point  10 :   0.3636 0.0909-0.0000  plane waves:     349
 k-point  11 :   0.4545 0.0909 0.0000  plane waves:     347
 k-point  12 :  -0.4545 0.0909 0.0000  plane waves:     353
 k-point  13 :  -0.3636 0.0909-0.0000  plane waves:     352
 k-point  14 :  -0.2727 0.0909-0.0000  plane waves:     348
 k-point  15 :  -0.1818 0.0909 0.0000  plane waves:     351
 k-point  16 :  -0.0909 0.0909-0.0000  plane waves:     343
 k-point  17 :   0.1818 0.1818-0.0000  plane waves:     347
 k-point  18 :   0.2727 0.1818 0.0000  plane waves:     348
 k-point  19 :   0.3636 0.1818 0.0000  plane waves:     349
 k-point  20 :   0.4545 0.1818 0.0000  plane waves:     348
 k-point  21 :  -0.4545 0.1818 0.0000  plane waves:     360
 k-point  22 :  -0.3636 0.1818 0.0000  plane waves:     354
 k-point  23 :  -0.2727 0.1818 0.0000  plane waves:     351
 k-point  24 :  -0.1818 0.1818-0.0000  plane waves:     349
 k-point  25 :   0.2727 0.2727-0.0000  plane waves:     347
 k-point  26 :   0.3636 0.2727 0.0000  plane waves:     341
 k-point  27 :   0.4545 0.2727-0.0000  plane waves:     346
 k-point  28 :  -0.4545 0.2727 0.0000  plane waves:     359
 k-point  29 :  -0.3636 0.2727 0.0000  plane waves:     358
 k-point  30 :  -0.2727 0.2727 0.0000  plane waves:     351
 k-point  31 :   0.3636 0.3636-0.0000  plane waves:     351
 k-point  32 :   0.4545 0.3636-0.0000  plane waves:     348
 k-point  33 :  -0.4545 0.3636-0.0000  plane waves:     358
 k-point  34 :  -0.3636 0.3636-0.0000  plane waves:     351
 k-point  35 :   0.4545 0.4545-0.0000  plane waves:     343
 k-point  36 :  -0.4545 0.4545 0.0000  plane waves:     347
 k-point  37 :   0.2727 0.1818 0.0909  plane waves:     349
 k-point  38 :   0.3636 0.1818 0.0909  plane waves:     343
 k-point  39 :   0.4545 0.1818 0.0909  plane waves:     348
 k-point  40 :  -0.4545 0.1818 0.0909  plane waves:     354
 k-point  41 :   0.3636 0.2727 0.0909  plane waves:     346
 k-point  42 :   0.4545 0.2727 0.0909  plane waves:     345
 k-point  43 :  -0.4545 0.2727 0.0909  plane waves:     355
 k-point  44 :  -0.3636 0.2727 0.0909  plane waves:     359
 k-point  45 :  -0.2727 0.2727 0.0909  plane waves:     355
 k-point  46 :  -0.1818 0.2727 0.0909  plane waves:     350
 k-point  47 :   0.4545 0.3636 0.0909  plane waves:     342
 k-point  48 :  -0.4545 0.3636 0.0909  plane waves:     349
 k-point  49 :  -0.3636 0.3636 0.0909  plane waves:     356
 k-point  50 :  -0.2727 0.3636 0.0909  plane waves:     355
 k-point  51 :  -0.4545 0.4545 0.0909  plane waves:     357
 k-point  52 :  -0.3636 0.4545 0.0909  plane waves:     357
 k-point  53 :  -0.4545 0.3636 0.1818  plane waves:     349
 k-point  54 :  -0.3636 0.3636 0.1818  plane waves:     359
 k-point  55 :  -0.3636 0.4545 0.1818  plane waves:     355
 k-point  56 :  -0.2727 0.4545 0.1818  plane waves:     355

 maximum and minimum number of plane-waves per node :       360      335

 maximum number of plane-waves:       360
 maximum index in each direction:
   IXMAX=    5   IYMAX=    4   IZMAX=    4
   IXMIN=   -5   IYMIN=   -5   IZMIN=   -5

 serial   3D FFT for wavefunctions
 parallel 3D FFT for charge:
    minimum data exchange during FFTs selected (reduces bandwidth)

 Broyden mixing: mesh for mixing (old mesh)
   NGX =  9   NGY =  9   NGZ =  9
  (NGX  = 32   NGY  = 32   NGZ  = 32)
  gives a total of    729 points

 initial charge density was supplied:
 charge density of overlapping atoms calculated
 number of electron       8.0000000 magnetization
 keeping initial charge density in first step

 Maximum index for augmentation-charges          805 (set IRDMAX)

 First call to EWALD:  gamma=   0.512
 Maximum number of real-space cells 3x 3x 3
 Maximum number of reciprocal cells 3x 3x 3

--------------------------------------- Iteration      1(   1)  ---------------------------------------

 eigenvalue-minimisations  :   904
 total energy-change (2. order) :-0.1893437E+01  (-0.2004046E+03)
 number of electron       8.0000000 magnetization
 augmentation part        8.0000000 magnetization

 Free energy of the ion-electron system (eV)
  alpha Z        PSCENC =         3.23732588
  Ewald energy   TEWEN  =      -225.65453461
  -Hartree energ DENC   =       -11.58535014
  -exchange      EXHF   =         0.00000000
  -V(xc)+E(xc)   XCENC  =       -18.75116554
  PAW double counting   =       176.24759923     -141.06103558
  entropy T*S    EENTRO =        -0.00074188
  eigenvalues    EBANDS =         9.55291282
  atomic energy  EATOM  =       206.12155316
  Solvation  Ediel_sol  =         0.00000000
  free energy    TOTEN  =        -1.89343666 eV

  energy without entropy =       -1.89269479  energy(sigma->0) =       -1.89306573

[...]

 Broyden mixing:
  rms(total) = 0.51883E+00    rms(broyden)= 0.51881E+00
  rms(prec ) = 0.93796E+00
  weight for this iteration     100.00

[...]

 eigenvalue-minimisations  :  1064
 total energy-change (2. order) : 0.1084023E+00  (-0.6916358E-02)
 number of electron       8.0000001 magnetization
 augmentation part       -0.4619293 magnetization

[...]

 eigenvalues of (default mixing * dielectric matrix)
  average eigenvalue GAMMA=   2.5646
  2.5646

[...]

 average (electrostatic) potential at core
  the test charge radii are     0.9892
  (the norm of the test charge is              1.0000)
       1 -83.6750       2 -83.6750

 E-fermi :   5.7911     XC(G=0):  -9.2620     alpha+bet :-11.5327

 Fermi energy:         5.7911392644

 k-point     1 :       0.0000    0.0000    0.0000
  band No.  band energies     occupation
      1      -6.2528      2.00000
      2       5.4592      2.00000
      3       5.4592      2.00000
      4       5.4592      2.00000
      5       8.0111      0.00000
      6       8.0111      0.00000
      7       8.0111      0.00000
      8       8.3876      0.00000

[...]

 soft charge-density along one line, spin component           1
         0         1         2         3         4         5         6         7         8         9
 total charge-density along one line

------------------------ aborting loop because EDIFF is reached ----------------------------------------

  FORCE on cell =-STRESS in cart. coord.  units (eV):
  Direction    XX          YY          ZZ          XY          YZ          ZX
  Alpha Z     3.23733     3.23733     3.23733
  Ewald     -75.21821   -75.21821   -75.21821     0.00000     0.00000    -0.00000
  Hartree     5.12271     5.12271     5.12271    -0.00000    -0.00000    -0.00000
  E(xc)     -25.16977   -25.16977   -25.16977     0.00001     0.00001     0.00001
  Local     -29.89094   -29.89094   -29.89094     0.00005     0.00005     0.00005
  n-local    78.30928    79.68582    73.96938     2.16956    -1.26117     0.52926
  augment   -11.60610   -11.60610   -11.60610    -0.00005    -0.00005    -0.00005
  Kinetic    57.93241    55.49465    53.90946     3.56881    -0.70547     1.03109
  Fock        0.00000     0.00000     0.00000     0.00000     0.00000     0.00000
  Total      -0.42466    -0.42466    -0.42466     0.00000    -0.00000    -0.00000
  in kB     -16.35774   -16.35774   -16.35774     0.00000    -0.00000    -0.00000

 VOLUME and BASIS-vectors are now :
  energy-cutoff  :      240.00
  volume of cell :       41.59
      direct lattice vectors                 reciprocal lattice vectors
     0.000000000  2.750000000  2.750000000    -0.181818182  0.181818182  0.181818182
     2.750000000  0.000000000  2.750000000     0.181818182 -0.181818182  0.181818182
     2.750000000  2.750000000  0.000000000     0.181818182  0.181818182 -0.181818182

[...]

 FORCES acting on ions
    electron-ion (+dipol)            ewald-force                    non-local-force                 convergence-correction
   0.422E-05 0.422E-05 0.432E-05   -.386E-15 0.509E-15 0.564E-15   0.460E-16 -.130E-16 -.408E-16   0.153E-06 0.153E-06 0.153E-06
   -.422E-05 -.422E-05 -.432E-05   0.608E-15 -.112E-14 -.912E-15   -.997E-17 -.204E-16 0.273E-16   -.153E-06 -.153E-06 -.153E-06
   -.125E-12 -.324E-13 0.167E-13   0.223E-15 -.610E-15 -.348E-15   0.360E-16 -.334E-16 -.134E-16   0.214E-15 0.686E-15 0.637E-15

 POSITION                                       TOTAL-FORCE (eV/Angst)
      4.81250      4.81250      4.81250        -0.000000     -0.000000     -0.000000
      0.68750      0.68750      0.68750         0.000000      0.000000      0.000000
    total drift:                               -0.000000     -0.000000      0.000000

  FREE ENERGIE OF THE ION-ELECTRON SYSTEM (eV)
  free  energy   TOTEN  =       -10.82308444 eV

  energy  without entropy=      -10.82308444  energy(sigma->0) =      -10.82308444

[...]

 d Force = 0.0000000E+00[ 0.000E+00, 0.000E+00]  d Energy = 0.2558706E-02-0.256E-02
 d Force = 0.0000000E+00[ 0.000E+00, 0.000E+00]  d Ewald  = 0.2335381E+01-0.234E+01

 Steepest descent step on ions:
 trial-energy change:   -0.002559  1 .order   -0.002391   -0.013050    0.008267
  (g-gl).g = 0.130E-01      g.g   = 0.130E-01  gl.gl    = 0.000E+00
 g(Force)  = 0.410E-42   g(Stress)= 0.130E-01 ortho     = 0.000E+00
 gamma     =   0.00000
 trial     =   1.00000
 opt step  =   0.62324  (harmonic =   0.61219) maximal distance =0.00000000
 next E    =   -10.827192   (d E  =  -0.00411)

[...]

 eigenvalue-minimisations  :  1080
 total energy-change (2. order) :-0.2340542E-02  (-0.2905629E-02)
 number of electron       7.9999996 magnetization
 augmentation part       -0.4579996 magnetization

[...]

 Broyden mixing:
  rms(total) = 0.35743E-02    rms(broyden)= 0.35742E-02
  rms(prec ) = 0.39252E-02
  weight for this iteration     100.00

 eigenvalues of (default mixing * dielectric matrix)
  average eigenvalue GAMMA=   1.2357
  2.2661  0.2053

[...]

--------------------------------------- Iteration      3(   4)  ---------------------------------------

 eigenvalue-minimisations  :   664
 total energy-change (2. order) : 0.2154251E-06  (-0.4425937E-06)
 number of electron       7.9999996 magnetization
 augmentation part       -0.4569691 magnetization

 Free energy of the ion-electron system (eV)
  alpha Z        PSCENC =         3.30012800
  Ewald energy   TEWEN  =      -227.10438537
  -Hartree energ DENC   =       -15.13761011
  -exchange      EXHF   =         0.00000000
  -V(xc)+E(xc)   XCENC  =       -18.03996112
  PAW double counting   =       990.74498342     -955.77514454
  entropy T*S    EENTRO =        -0.00000001
  eigenvalues    EBANDS =         5.06321900
  atomic energy  EATOM  =       206.12155316
  Solvation  Ediel_sol  =         0.00000000
  free energy    TOTEN  =       -10.82721759 eV

  energy without entropy =      -10.82721757  energy(sigma->0) =      -10.82721758

 average (electrostatic) potential at core
  the test charge radii are     0.9892
  (the norm of the test charge is              1.0000)
       1 -83.4628       2 -83.4628

 E-fermi :   5.9629     XC(G=0):  -9.3369     alpha+bet :-11.7565

 Fermi energy:         5.9629117837

[...]

 k-point    56 :      -0.2727    0.4545    0.1818
  band No.  band energies     occupation
      1      -2.3364      2.00000
      2      -1.6074      2.00000
      3       1.6017      2.00000
      4       2.2889      2.00000
      5       8.9943      0.00000
      6      10.2767      0.00000
      7      10.9825      0.00000
      8      10.9940      0.00000

 soft charge-density along one line, spin component           1
         0         1         2         3         4         5         6         7         8         9
 total charge-density along one line

------------------------ aborting loop because EDIFF is reached ----------------------------------------

  FORCE on cell =-STRESS in cart. coord.  units (eV):
  Direction    XX          YY          ZZ          XY          YZ          ZX
  Alpha Z     3.30013     3.30013     3.30013
  Ewald     -75.70150   -75.70150   -75.70150     0.00000    -0.00000     0.00000
  Hartree     5.04552     5.04552     5.04552    -0.00000    -0.00000    -0.00000
  E(xc)     -25.27793   -25.27793   -25.27793     0.00001     0.00001     0.00001
  Local     -29.61378   -29.61378   -29.61378     0.00005     0.00005     0.00005
  n-local    78.64025    80.02113    74.28523     2.20767    -1.28967     0.54537
  augment   -11.61114   -11.61114   -11.61114    -0.00005    -0.00005    -0.00005
  Kinetic    58.37338    55.77760    54.48459     3.56965    -0.67235     1.03333
  Fock        0.00000     0.00000     0.00000     0.00000     0.00000     0.00000
  Total       0.00202     0.00202     0.00202    -0.00000     0.00000    -0.00000
  in kB       0.07947     0.07947     0.07947    -0.00000     0.00000    -0.00000

 VOLUME and BASIS-vectors are now :
  energy-cutoff  :      240.00
  volume of cell :       40.80
      direct lattice vectors                 reciprocal lattice vectors
    -0.000000000  2.732443802  2.732443802    -0.182986380  0.182986380  0.182986380
     2.732443802 -0.000000000  2.732443802     0.182986380 -0.182986380  0.182986380
     2.732443802  2.732443802 -0.000000000     0.182986380  0.182986380 -0.182986380

  length of vectors
     3.864259083  3.864259083  3.864259083     0.316941707  0.316941707  0.316941707

 FORCES acting on ions
    electron-ion (+dipol)            ewald-force                    non-local-force                 convergence-correction
   0.360E-05 0.360E-05 0.359E-05   0.252E-14 -.291E-15 -.115E-13   -.107E-16 0.135E-16 -.718E-17   -.472E-06 -.472E-06 -.472E-06
   -.360E-05 -.360E-05 -.359E-05   -.276E-14 0.322E-15 0.121E-13   0.422E-16 -.989E-17 0.470E-16   0.472E-06 0.472E-06 0.472E-06
   -.125E-12 -.636E-13 0.242E-13   -.240E-15 0.312E-16 0.689E-15   0.314E-16 0.365E-17 0.398E-16   0.283E-15 -.551E-15 -.661E-15

 POSITION                                       TOTAL-FORCE (eV/Angst)
      4.78178      4.78178      4.78178         0.000000      0.000000      0.000000
      0.68311      0.68311      0.68311        -0.000000     -0.000000     -0.000000
    total drift:                               -0.000000     -0.000000      0.000000

  FREE ENERGIE OF THE ION-ELECTRON SYSTEM (eV)
  free  energy   TOTEN  =       -10.82721759 eV

  energy  without entropy=      -10.82721757  energy(sigma->0) =      -10.82721758

 d Force = 0.0000000E+00[ 0.000E+00, 0.000E+00]  d Energy = 0.1574438E-02-0.157E-02
 d Force = 0.0000000E+00[ 0.000E+00, 0.000E+00]  d Ewald  =-0.8855300E+00 0.886E+00

 reached required accuracy - stopping structural energy minimisation
 writing wavefunctions